Year Ft Rg C
2019  3  1  3380.9967
2020  3  1  1007.5276
2021  3  1  1353.7313
2022  3  1  3615.6578
2023  3  1  4321.4863
2024  3  1  6447.6984
2025  3  1  6848.7345
2026  3  1  9116.7146
2027  3  1 11779.4433
2028  3  1 10729.0980
2029  3  1  8613.2064
2030  3  1  6391.0518
2031  3  1  6926.1820
2032  3  1 16094.3157
2033  3  1 14934.3561
2034  3  1 13157.5481
2035  3  1 17239.4079
2036  3  1 17907.1817
2037  3  1 18196.8059
2038  3  1 12864.5104
2039  3  1 10126.2902
2040  3  1  8704.5913
2041  3  1  8260.1735
2042  3  1  9785.7426
2043  3  1  7949.4575
2044  3  1  8846.7145
2045  3  1  6542.9216
