pseudo ref pts
2019       15420.8807  0.5896  0.5044  0.6556  0.5967       83505.6993
2020       18523.7353  0.2266  0.5065  0.6441  0.6916       82009.5600
2021       28824.1272  0.1555  0.4001  0.6831  0.8105       80142.7649
2022       33993.0332  0.2786  0.4851  0.7162  0.7858       83103.4089
2023       54315.3277  0.2193  0.4946  0.8185  0.9613       88944.1114
2024       86467.4336  0.2186  0.4228  1.5010  1.1951      100571.5292
2025      144348.0398  0.1154  0.2311  1.3975  1.5851       98167.6835
2026      167397.4675  0.1671  0.2340  1.2997  1.5805       93052.4630
2027      117373.1989  0.2409  0.2608  0.4329  1.1698       81214.7888
2028      150180.6820  0.1766  0.1939  0.8664  1.4606       85366.2183
2029       82634.9441  0.3914  0.3854  1.8505  0.8942       86869.1429
2030      104068.6613  0.2619  0.2918  3.1883  1.0364       87873.9669
2031      164116.4491  0.2012  0.3649  4.1781  1.4268       98432.7299
2032      124342.7394  0.4067  0.3527  0.8726  1.0351       85774.1605
2033      164355.0270  0.3157  0.3266  0.9561  1.3229       91117.1376
2034      170557.6938  0.2882  0.3646  0.6622  1.3378       96310.0084
2035      125334.8748  0.4216  0.4301  0.6668  0.9685       90346.0226
2036      135242.3647  0.3449  0.3383  0.6610  1.0286       91725.9940
2037       98887.4778  0.4144  0.2849  0.7230  0.8010       77759.4110
2038      124667.3109  0.1902  0.2399  0.4648  1.1006       88272.1113
2039      134281.6701  0.1718  0.2855  0.8412  1.3699       95081.8844
2040       90760.4596  0.3987  0.4659  0.7757  1.0089       98455.7335
2041       79912.3714  0.4331  0.4068  1.4489  0.9529       94703.0835
2042       83368.3360  0.3107  0.4156  1.0247  1.1168       99411.5711
2043       86315.1264  0.3140  0.4683  0.7664  1.3003      102918.0460
2044       84272.9804  0.3788  0.3926  1.2759  1.3318       99547.5933
2045       74941.2859  0.5151  0.4206  4.9226  1.2259       95665.9051
