Year Ft Rg C
2019  3  1  3727.8196
2020  3  1  3426.3458
2021  3  1  2850.1846
2022  3  1  2820.8710
2023  3  1  1936.3703
2024  3  1  3726.0383
2025  3  1  2999.0469
2026  3  1  2814.7840
2027  3  1  3463.4219
2028  3  1  2755.1117
2029  3  1  3279.5748
2030  3  1  3546.4400
2031  3  1  2941.0504
2032  3  1  2667.8237
2033  3  1  3354.0431
2034  3  1  3030.3094
2035  3  1  3262.4063
2036  3  1  3684.1022
2037  3  1  2760.8228
2038  3  1  3369.9332
2039  3  1  2681.3688
2040  3  1  2974.2078
2041  3  1  3641.5234
2042  3  1  3097.9090
2043  3  1  3284.8584
2044  3  1   174.7840
2045  3  1   457.8281
