pseudo ref pts
2019       48332.1086  0.2023  0.3603  1.5481  1.5357       18960.7771
2020       39869.1719  0.3114  0.3499  1.3462  1.3429       18584.1132
2021       33451.7920  0.3722  0.3878  1.8764  1.3311       17658.5766
2022       22245.5144  0.6236  0.6387  1.6840  1.0006       19337.6097
2023       20386.5274  0.6663  0.6163  2.4710  0.9836       19193.7385
2024       21848.0219  0.6455  0.6003  1.6681  1.1093       19786.6245
2025       13671.3537  0.5965  0.3741  0.7554  0.7560       16499.0272
2026       14671.0733  0.3392  0.3929  0.2266  0.9375       16669.8286
2027        7977.9012  0.4558  0.2959  0.2756  0.5447       14234.2254
2028        6425.7687  0.4814  0.3931  0.3949  0.5013       15045.7983
2029       10642.5560  0.3335  0.3235  1.7562  0.8714       15847.3089
2030        6176.0084  0.5053  0.3177  0.6187  0.5439       13863.7460
2031        4898.7859  0.5545  0.2827  0.3722  0.4787       13649.4625
2032        7253.1732  0.4172  0.3335  0.7856  0.7306       14948.8309
2033        9255.4644  0.4802  0.4279  0.7960  0.9150       16376.9055
2034       15294.9220  0.4817  0.4643  1.9727  1.5729       18011.9315
2035        8273.7941  0.8389  0.5715  0.4157  0.9396       16819.8726
2036        9720.9019  0.7979  0.5017  1.2188  1.2744       17726.9769
2037        8122.1203  1.0320  0.3707  1.0766  1.0969       17239.1354
2038        3957.5679  1.9798  0.4491  1.6922  0.5881       15796.6135
2039        8100.8285  0.8649  0.3362  1.7991  1.2429       18956.6132
2040        6679.8025  0.9451  0.4365  1.4263  1.1384       18535.7886
2041        4237.9331  1.6745  0.6494  0.6287  0.7696       17505.2784
2042        4720.6409  1.1436  0.4581  1.3938  0.8517       16463.4969
2043        2887.1731  1.7239  0.5988  0.8858  0.4797       14413.6740
2044        7659.0396  0.0937  0.3799  1.8449  0.9921       15386.9186
2045       12524.1148  0.0882  0.4531  1.0208  1.3347       17443.8084
