Year Ft Rg C
2019  3  1  3669.3891
2020  3  1  2306.2510
2021  3  1  2517.6696
2022  3  1  3015.1493
2023  3  1  2656.6418
2024  3  1  2841.9152
2025  3  1  2895.1831
2026  3  1  2459.7658
2027  3  1  2954.1849
2028  3  1  4433.9120
2029  3  1  5410.2351
2030  3  1  4630.3225
2031  3  1  3436.8911
2032  3  1  3378.7707
2033  3  1  3194.9641
2034  3  1  2497.9574
2035  3  1  2546.6776
2036  3  1  2957.4364
2037  3  1  4021.9382
2038  3  1  2532.9489
2039  3  1  2702.5779
2040  3  1  2636.1864
2041  3  1  3382.8663
2042  3  1  5270.8302
2043  3  1  6063.0177
2044  3  1  7884.3538
2045  3  1  5980.9888
