pseudo ref pts
2019       30966.1776  0.3025  0.4073  1.1374  1.1268       35859.4722
2020       26408.0889  0.3078  0.4126  1.0307  1.0341       34091.0173
2021       22299.4442  0.3867  0.4858  0.7355  0.8587       33540.7950
2022       18703.4679  0.2751  0.3543  0.6501  0.7728       29601.8683
2023       27738.0398  0.1732  0.3130  0.8881  1.1115       35073.5930
2024       19337.6171  0.2365  0.3060  1.4649  0.7835       30792.5064
2025       24181.7058  0.2646  0.3675  1.6657  0.9329       32203.1539
2026       31029.2716  0.2243  0.3764  2.4948  1.0833       31101.5745
2027       43161.7362  0.1608  0.3628  1.1080  1.3291       32931.0356
2028       59405.3719  0.2922  0.4765  1.2478  1.5984       36525.9048
2029       59228.6145  0.2647  0.4166  0.6307  1.5156       35635.6000
2030       37679.5102  0.4372  0.3578  0.4532  0.9603       33915.3434
2031       31311.5101  0.7125  0.4883  0.7958  0.8849       34407.2605
2032       31665.9955  0.4854  0.5351  1.3824  1.0931       38363.2830
2033       31287.5498  0.4504  0.4554  2.6412  1.0958       35602.5971
2034       23217.6811  0.4608  0.4413  0.9595  0.9032       31229.2365
2035       20982.8898  0.4538  0.4078  1.0609  0.8414       29481.1347
2036       31012.2557  0.1870  0.3438  0.9070  1.1311       33059.4435
2037       43145.1771  0.1551  0.2717  0.8333  1.4357       29863.6643
2038       31462.9303  0.2658  0.3943  0.5829  1.0736       30128.3689
2039       46244.4720  0.2000  0.3735  1.3338  1.4555       35408.8910
2040       56090.6526  0.2634  0.3986  3.3760  1.5246       37968.3470
2041       59382.2339  0.2792  0.3966  2.8338  1.4381       35858.6460
2042       74614.4735  0.2854  0.3288  1.6282  1.6428       34912.7736
2043       65147.0417  0.3629  0.4106  0.7292  1.3787       35793.9965
2044       61947.4181  0.4011  0.3573  0.4702  1.3355       36133.9845
2045       55719.3558  0.3834  0.2775  1.5855  1.4458       34932.8552
