Year Ft Rg C
2019  3  1  3394.0445
2020  3  1  3003.7490
2021  3  1  2515.3174
2022  3  1  2003.7251
2023  3  1  2106.6460
2024  3  1  2185.5450
2025  3  1  1453.4087
2026  3  1  1293.2395
2027  3  1  1119.8774
2028  3  1  1191.3515
2029  3  1  1330.3931
2030  3  1  1409.1443
2031  3  1  1511.6312
2032  3  1  1482.3230
2033  3  1  1252.8575
2034  3  1   959.2795
2035  3  1  1299.0535
2036  3  1  2177.3766
2037  3  1  2322.9619
2038  3  1  2559.4206
2039  3  1  2290.9966
2040  3  1  1410.3071
2041  3  1  1325.9791
2042  3  1  1425.7388
2043  3  1  1334.2651
2044  3  1  1463.2556
2045  3  1  1421.6108
