pseudo ref pts
2019       26821.4288  0.3343  0.3632  1.1811  1.0704       16865.5143
2020       23014.0322  0.3872  0.4234  0.9712  0.9024       16054.0527
2021       22422.2145  0.3309  0.4351  0.8340  0.9789       17416.3200
2022       17506.6676  0.4923  0.5456  0.8800  0.8823       17532.4574
2023       11476.6430  0.8722  0.5988  1.0135  0.6654       15920.1835
2024        7896.8736  0.9498  0.7215  1.9933  0.5645       14754.3154
2025       15710.8875  0.4264  0.5743  2.6951  1.0351       17086.3841
2026       27611.1684  0.2228  0.4180  1.9921  1.6828       19361.0642
2027       17304.4982  0.4048  0.5113  0.2990  1.0521       16475.6097
2028       17502.9310  0.4504  0.4795  0.4035  1.0447       17539.9022
2029       10896.2435  0.5420  0.3228  0.3714  0.7097       14994.2164
2030       11489.2736  0.3141  0.3695  1.7708  0.8375       16639.4885
2031       12866.8574  0.2364  0.2675  1.6390  1.0506       16483.4416
2032       17597.7437  0.1857  0.2498  4.5161  1.6191       16908.0147
2033       18054.9356  0.1464  0.1942  3.2179  1.6070       15291.4773
2034       18531.3868  0.1230  0.2122  5.1742  1.4741       15350.3627
2035       26444.6987  0.1208  0.2680  1.6646  1.6937       14899.7360
2036       27391.6211  0.2290  0.3610  1.0392  1.4118       14354.9620
2037       35442.7265  0.1582  0.3103  0.2673  1.5674       15980.4383
2038       39495.5166  0.2286  0.3349  0.6580  1.5255       17770.0859
2039       32674.3432  0.2609  0.3062  1.1092  1.3085       17199.5180
2040       29678.9370  0.2136  0.2947  2.8994  1.3395       17255.3983
2041       19891.4337  0.2478  0.2476  0.9838  0.9833       15281.6628
2042       15171.6215  0.1781  0.2542  0.5819  0.8514       15204.6908
2043       12911.0411  0.2339  0.2780  0.5674  0.7991       14353.6313
2044        9834.1325  0.2915  0.3937  0.6970  0.6358       14153.0091
2045       13158.8018  0.2218  0.3629  0.6922  0.8688       14977.3776
