Year Ft Rg C
2019  3  1  3654.8713
2020  3  1  1626.1649
2021  3  1  2267.3155
2022  3  1  4192.5113
2023  3  1  6942.6855
2024  3  1 11428.1841
2025  3  1 16938.4365
2026  3  1 23557.8990
2027  3  1 16743.2999
2028  3  1  8519.8923
2029  3  1  6411.7934
2030  3  1  4172.5229
2031  3  1  5187.9073
2032  3  1  8831.7700
2033  3  1 13616.2865
2034  3  1 13371.0107
2035  3  1 10846.3614
2036  3  1  9579.0931
2037  3  1  9488.3530
2038  3  1 13914.7140
2039  3  1 16284.8372
2040  3  1 12749.5329
2041  3  1 12974.0453
2042  3  1 19487.9685
2043  3  1 15589.9506
2044  3  1 15809.0966
2045  3  1 13876.0745
