pseudo ref pts
2019       18965.6538  0.5872  0.4910  0.6528  0.5965       83025.7254
2020       24561.5233  0.2286  0.4406  0.7396  0.8158       83859.6311
2021       36152.2691  0.2105  0.4462  1.2686  1.0078       78943.8231
2022       42866.4530  0.3819  0.4872  0.7399  0.8302       73000.6074
2023       56272.1523  0.2994  0.5573  1.0154  0.8865       81816.7360
2024       72261.7162  0.5057  0.5786  0.4920  0.9343       81576.4450
2025      117318.1403  0.3374  0.5213  0.8913  1.3089       89197.0447
2026      109366.5980  0.4404  0.3549  0.3024  1.1017       86378.2190
2027      107249.8872  0.4356  0.3848  0.2501  1.1451       96558.5500
2028       98943.7456  0.2533  0.2468  1.0898  1.2393       96975.0235
2029       85728.8352  0.3431  0.3056  1.8369  1.1134      100497.0403
2030       86231.9731  0.1892  0.3408  3.7474  1.2003      100694.9208
2031       89018.6780  0.2629  0.4464  1.0151  1.2494       98961.7042
2032       61688.3874  0.5163  0.3784  0.8111  0.7998       85342.5699
2033       69686.9370  0.5115  0.4273  1.1642  0.8469       92647.4227
2034       75509.5166  0.2930  0.3120  1.0117  0.8549       90734.7354
2035       87903.2016  0.2796  0.3298  0.9053  0.8856       89283.4971
2036      103060.8278  0.2332  0.3299  0.6368  1.0244       91576.0163
2037      131159.5343  0.1666  0.2625  1.9853  1.3389       93892.1337
2038      113173.2893  0.2529  0.2561  1.8159  1.0002       83768.1429
2039      145276.6908  0.1765  0.2257  2.1491  1.1037       83514.7417
2040      193332.2642  0.1648  0.3105  0.5497  1.3575       92744.1715
2041      148334.4701  0.1711  0.3279  0.2967  0.9949       90702.3021
2042      158133.0484  0.1789  0.2523  0.1476  1.0653       90871.5119
2043      131909.5835  0.2346  0.2522  1.3938  0.8947       89345.1432
2044      142335.3798  0.1900  0.2135  1.8681  0.9459       89995.9434
2045      126036.1868  0.2240  0.2575  4.2632  0.8365       86165.3272
