Year Ft Rg C
2019  3  1  3655.2999
2020  3  1  1876.7110
2021  3  1  1693.7886
2022  3  1  2143.0253
2023  3  1  3233.4172
2024  3  1  3756.7855
2025  3  1  4523.8066
2026  3  1  3469.9828
2027  3  1  3887.7518
2028  3  1  5373.5127
2029  3  1  6762.2742
2030  3  1  8652.8918
2031  3  1  8228.9316
2032  3  1  4127.4290
2033  3  1  4916.6877
2034  3  1  4738.6523
2035  3  1  4797.0752
2036  3  1  4834.0620
2037  3  1  7351.0604
2038  3  1  9338.3992
2039  3  1 10522.2394
2040  3  1 11780.5193
2041  3  1 10020.5187
2042  3  1  6018.5165
2043  3  1  4873.1957
2044  3  1  5622.5121
2045  3  1  3692.0842
