pseudo ref pts
2019       32927.7849  0.2558  0.3002  1.4890  1.2599       34784.3142
2020       37086.3235  0.1573  0.2631  1.5720  1.4406       34442.8494
2021       23400.5062  0.2054  0.2613  2.5140  0.9094       29421.7501
2022       30925.4730  0.1986  0.3216  1.8991  1.0148       29576.5554
2023       48136.3408  0.1035  0.2313  2.0700  1.3286       31140.7000
2024       45962.3079  0.1526  0.2396  0.1413  1.1913       28910.0097
2025       59240.4168  0.1400  0.2294  2.0323  1.4874       33159.9688
2026       47769.6930  0.3131  0.3478  2.5792  0.9814       31772.1417
2027       77554.9526  0.1637  0.2895 14.0878  1.2807       32965.8281
2028       56709.4448  0.3032  0.3100  0.5893  0.8649       25320.4924
2029       66872.0557  0.3141  0.3480  0.2395  0.9679       25109.5301
2030       72978.8772  0.3500  0.3492  0.1876  0.9523       28161.5642
2031       52298.7685  0.3923  0.3701  0.3875  0.7486       27630.9030
2032       57292.1999  0.2853  0.3469  1.2392  0.9190       30288.9126
2033       56511.2918  0.3409  0.3747  2.9421  0.9651       31015.4324
2034       50507.2933  0.3174  0.2959  1.7074  0.9640       30000.3652
2035       47205.1511  0.2795  0.3014  2.5457  1.0539       32270.6371
2036       73557.8935  0.1536  0.2679  2.1082  1.5294       34274.0553
2037       60810.9324  0.2243  0.3653  1.9780  1.0271       32785.6213
2038       39659.0718  0.4035  0.3957  0.2742  0.6785       27185.6646
2039       43414.5849  0.4200  0.5166  0.3320  0.7762       29985.6823
2040       31113.1691  0.6926  0.5442  0.1890  0.4961       26723.8654
2041       41981.4000  0.4412  0.4320  0.5322  0.6915       29603.7440
2042       35749.3765  0.4480  0.3960  0.3014  0.6065       27446.5031
2043       30873.8542  0.6445  0.5583  0.3851  0.6166       26711.6445
2044       21156.0546  0.9309  0.6239  0.3504  0.5098       25958.4235
2045       20579.7467  0.8159  0.4528  1.4046  0.5885       26248.4171
