Year Ft Rg C
2019  3  1  3942.2436
2020  3  1  2553.2506
2021  3  1  3198.8572
2022  3  1  2447.3195
2023  3  1  3459.1915
2024  3  1  2557.9537
2025  3  1  3357.2134
2026  3  1  3079.8389
2027  3  1  3081.8871
2028  3  1  3140.5041
2029  3  1  3755.3679
2030  3  1  3245.7874
2031  3  1  2809.7405
2032  3  1  3101.6710
2033  3  1  3285.2011
2034  3  1   318.5676
2035  3  1   608.2828
2036  3  1  1845.6234
2037  3  1  3333.0468
2038  3  1  5749.3269
2039  3  1  6110.8774
2040  3  1  5820.2473
2041  3  1  4390.4884
2042  3  1  2729.0387
2043  3  1  2149.4318
2044  3  1  1293.0653
2045  3  1  1437.6665
