pseudo ref pts
2019       31295.5558  0.2709  0.2985  1.0737  1.1884       15178.1749
2020       37119.2294  0.2030  0.2644  1.1605  1.3778       15474.4980
2021       30027.4693  0.1972  0.2172  0.8088  1.1397       14673.6290
2022       26337.0062  0.2635  0.3103  0.6837  1.1281       15862.6293
2023       14058.9650  0.5806  0.3867  0.7088  0.6228       14761.8252
2024        8651.7114  0.7251  0.3853  0.8199  0.4868       13947.5278
2025       11198.9513  0.6188  0.3340  1.9746  0.7042       14962.1517
2026       15362.2722  0.3584  0.2786  1.2009  1.0739       15442.4242
2027       10293.1144  0.4781  0.3079  0.8413  0.8286       15326.0162
2028       13049.8567  0.4395  0.3160  0.6435  1.1175       16245.5754
2029       12418.9905  0.4322  0.2696  0.7947  1.2070       16222.8196
2030        9927.8383  0.5988  0.2576  1.2856  1.1727       16164.3145
2031        6852.7529  1.3884  0.3095  1.2529  0.8946       14650.7316
2032        6282.8826  0.9723  0.3167  3.5815  0.8885       14840.8837
2033        6603.7807  0.8562  0.3671  1.6761  0.8380       14161.6040
2034       11507.8541  0.0791  0.1906  3.6002  1.0924       13557.3913
2035       22041.2162  0.0915  0.2739  3.2540  1.6737       14186.0650
2036       54672.8168  0.1485  0.2942  5.9926  2.2795       15545.8715
2037       93162.5004  0.1036  0.3288  2.4299  2.4723       16353.1765
2038      105609.5596  0.2483  0.3332  0.4567  2.0549       16047.6013
2039       87009.4603  0.2429  0.3338  0.0601  1.5642       15889.7885
2040       66468.6125  0.2781  0.3085  0.1078  1.2020       15923.7986
2041       40808.9856  0.4538  0.2753  0.2047  0.7468       14779.0263
2042       22381.4048  0.2399  0.1834  2.2142  0.5489       13540.5166
2043       22303.3385  0.3552  0.2747  1.8715  0.7248       15499.7502
2044       16172.4573  0.2672  0.2776  2.8520  0.6960       14231.9307
2045       17364.3416  0.3319  0.4165  0.8557  0.8169       15735.2720
