Year Ft Rg C
2019  3  1  3727.8196
2020  3  1  3359.4009
2021  3  1  3252.5133
2022  3  1  3381.5545
2023  3  1  3765.8850
2024  3  1  7429.8909
2025  3  1  5922.1263
2026  3  1  3494.9417
2027  3  1  4406.6011
2028  3  1  2556.9934
2029  3  1  2689.6272
2030  3  1  2703.2457
2031  3  1  2546.7725
2032  3  1   921.6659
2033  3  1  1651.5560
2034  3  1  2483.5617
2035  3  1  2864.8822
2036  3  1  3540.8059
2037  3  1  2479.0284
2038  3  1  1653.2111
2039  3  1  1657.9423
2040  3  1   998.1798
2041  3  1  1239.8290
2042  3  1  1911.1361
2043  3  1  1770.3055
2044  3  1  2090.2674
2045  3  1  2879.6027
