pseudo ref pts
2019       48332.1086  0.2020  0.3603  1.5481  1.5357       37922.5503
2020       41133.5197  0.2990  0.3499  1.3462  1.3855       37120.3509
2021       38067.3775  0.3428  0.3849  1.8767  1.4169       35452.4589
2022       29550.0664  0.5273  0.6387  1.6847  1.0970       38562.9373
2023       32459.6302  0.5152  0.6163  2.4734  1.1377       38463.0438
2024       40920.9261  0.5387  0.6049  1.6700  1.3100       39452.9909
2025       27822.3060  0.4459  0.3741  0.7563  0.8710       33078.3379
2026       32694.1183  0.2396  0.3871  0.2269  1.0502       33386.5221
2027       18895.6317  0.2961  0.2915  0.2761  0.5891       28590.3611
2028       16260.6294  0.2411  0.3844  0.3957  0.5390       30105.8085
2029       28119.6573  0.1539  0.3139  1.7589  0.9218       31695.3027
2030       17095.3892  0.2554  0.3083  0.6194  0.5726       27708.5080
2031       14037.3525  0.2774  0.2743  0.3725  0.4990       27350.3302
2032       21538.4370  0.1088  0.3163  0.7867  0.7597       29800.9299
2033       29328.1060  0.1350  0.4090  0.7969  0.9578       32653.4505
2034       50572.3071  0.2322  0.4505  1.9748  1.6505       36068.8873
2035       27963.7795  0.3956  0.5588  0.4160  0.9821       33580.7303
2036       34372.4861  0.3876  0.4905  1.2204  1.3221       35491.2735
2037       29794.4416  0.4222  0.3625  1.0798  1.1353       34449.3854
2038       14484.3906  0.5807  0.4325  1.6989  0.6037       31549.2064
2039       29347.1614  0.2890  0.3238  1.8064  1.2510       37880.6066
2040       23756.7988  0.2693  0.4141  1.4299  1.1262       37146.8769
2041       15817.2628  0.4574  0.6160  0.6293  0.7748       35130.9624
2042       18631.4261  0.3187  0.4379  1.3939  0.8766       33023.4176
2043       10720.0055  0.5314  0.5680  0.8850  0.4847       28791.6958
2044       24615.3891  0.1891  0.3889  1.8423  0.9345       30914.5611
2045       32791.2910  0.1579  0.4638  1.0161  1.1609       34954.4400
