Year Ft Rg C
2019  3  1  3180.1301
2020  3  1  1713.4425
2021  3  1  2037.2387
2022  3  1  2145.7791
2023  3  1  2819.8822
2024  3  1  2486.6337
2025  3  1  1779.7307
2026  3  1  2216.0994
2027  3  1  2735.2764
2028  3  1  2558.9307
2029  3  1   263.8893
2030  3  1   611.3950
2031  3  1   717.0004
2032  3  1   750.2803
2033  3  1   877.9694
2034  3  1   668.8440
2035  3  1   616.9823
2036  3  1   782.1320
2037  3  1   782.8506
2038  3  1  1320.6574
2039  3  1  1959.8205
2040  3  1  2237.6469
2041  3  1  2252.5520
2042  3  1  1505.1925
2043  3  1  1109.7203
2044  3  1  1067.9469
2045  3  1  1163.7658
