pseudo ref pts
2019       39000.8061  0.2543  0.3344  1.4961  1.6857       17176.3359
2020       34362.3868  0.3087  0.3722  1.4367  1.5082       17044.7256
2021       26360.8640  0.3862  0.3865  1.1080  1.1991       15903.4111
2022       23483.2337  0.3440  0.3574  1.3052  1.2785       17075.4368
2023       18096.2318  0.5030  0.3980  0.9286  1.0893       17186.3925
2024       19334.5896  0.3578  0.3432  1.1801  1.4442       18644.3175
2025       11436.9572  0.5823  0.2920  0.7026  1.0302       17014.9517
2026        6542.5123  0.6903  0.3041  1.0386  0.8168       15734.4854
2027        5835.0086  0.9580  0.3374  3.1038  0.8604       16218.6276
2028        6499.5709  0.4364  0.2680  2.4361  0.9090       14268.1469
2029       11946.7178  0.0678  0.2353  2.0693  1.4590       15516.0689
2030       11543.3679  0.1362  0.2988  0.6442  1.2857       14892.4532
2031       12115.0678  0.1715  0.3717  0.5329  1.1318       14124.8072
2032       15947.8037  0.2024  0.4466  0.6472  1.1756       15398.6541
2033       12104.6839  0.2133  0.3376  0.3429  0.8355       12771.7083
2034        9880.2210  0.3093  0.4461  0.5256  0.6627       12915.2321
2035        7369.7006  0.4114  0.5411  0.5092  0.5044       12823.4997
2036        9385.1516  0.2604  0.4755  1.9573  0.6499       13033.8074
2037       18064.4403  0.1217  0.3130  1.7551  1.1533       15123.3859
2038       19031.6692  0.1843  0.3049  2.1526  1.0501       15386.7551
2039       18906.6125  0.2516  0.4045  0.4641  0.9811       14912.4305
2040       23555.7207  0.2477  0.3091  0.8886  1.1654       15239.4773
2041       27910.2700  0.1686  0.1897  0.7829  1.2739       15033.7040
2042       19429.9133  0.2516  0.3484  1.6868  0.9428       15310.0768
2043       24100.7269  0.1789  0.3073  1.0619  1.1773       16246.3222
2044       26979.1609  0.2292  0.3128  0.5344  1.3640       15908.2368
2045       21706.3016  0.2135  0.2175  0.3381  1.2951       14612.8314
