Year Ft Rg C
2019  3  1  3419.1485
2020  3  1  1824.4336
2021  3  1  2084.3156
2022  3  1  2069.0617
2023  3  1  2786.4347
2024  3  1  4437.4345
2025  3  1  3260.1579
2026  3  1  1901.2134
2027  3  1  2820.2627
2028  3  1  2371.6501
2029  3  1  2470.3707
2030  3  1  2459.6466
2031  3  1  1794.9698
2032  3  1  1056.1154
2033  3  1  1551.8378
2034  3  1  3133.0755
2035  3  1  4732.5953
2036  3  1  4958.2285
2037  3  1  4507.2016
2038  3  1  3889.5971
2039  3  1  2581.2237
2040  3  1  2036.8289
2041  3  1  2522.6693
2042  3  1  3292.7132
2043  3  1  3907.2178
2044  3  1  2212.5770
2045  3  1  2489.6320
