pseudo ref pts
2019       29263.0440  0.2574  0.2717  1.2967  1.1909       31230.4451
2020       40138.3210  0.1791  0.3301  1.6081  1.5776       33855.1913
2021       48086.6161  0.1459  0.3521  3.6153  1.9071       36903.9432
2022       85361.7834  0.2655  0.4736  4.2065  2.7380       43041.1846
2023      105772.8955  0.2211  0.3878  4.1567  3.1456       39417.9907
2024       76216.7385  0.6161  0.3194  1.8994  2.4066       37030.4146
2025       62191.4457  1.4699  0.3354  2.6790  2.2586       39341.0370
2026       57915.3295  0.3338  0.3062  2.8401  2.1901       41536.7149
2027       48170.2726  0.4498  0.3586  1.3490  1.7481       38279.2625
2028       57287.6608  0.3827  0.3196  1.9098  2.2505       39737.5312
2029       88401.9011  0.3108  0.3299  2.8723  3.5019       42318.4198
2030       85567.2406  0.4009  0.2211  3.6950  3.4020       40570.0940
2031       51102.8081  0.7172  0.2462  2.7447  2.6628       38471.6660
2032       41820.5701  0.3315  0.3264  5.0209  2.4370       41281.4469
2033       59025.6078  0.2698  0.3818  4.8442  2.5497       40476.5429
2034       61165.0191  0.4116  0.4510  2.7400  2.0145       36963.3339
2035       32134.9659  0.4730  0.3418  0.3005  1.1219       29478.3046
2036       31151.8277  0.3049  0.3249  0.3312  0.9131       30191.0149
2037       25037.8275  0.4008  0.4279  0.2678  0.6413       28527.7324
2038       17549.1039  0.5175  0.5009  0.5604  0.4822       26442.4442
2039       15456.4342  0.4355  0.4352  0.4969  0.4676       27019.2114
2040       16439.6613  0.2440  0.4387  0.7788  0.5472       29045.6312
2041       36181.3921  0.1742  0.3998  1.3480  1.0715       32387.6895
2042       45215.1353  0.2534  0.3355  1.4287  1.2778       33516.2590
2043       37349.9258  0.2797  0.3407  0.5763  1.1589       32761.0181
2044       40754.8201  0.2383  0.2905  1.0005  1.2918       32592.4805
2045       38563.0577  0.2451  0.2600  1.2746  1.3039       33137.2385
