Year Ft Rg C
2019  3  1  4132.1365
2020  3  1  1905.3768
2021  3  1  2065.2459
2022  3  1  2281.0161
2023  3  1  2159.2532
2024  3  1  1948.3457
2025  3  1  1741.7978
2026  3  1  2002.2012
2027  3  1  2895.2856
2028  3  1  3122.4534
2029  3  1  3019.0038
2030  3  1  2053.8804
2031  3  1  2936.4411
2032  3  1  3076.6239
2033  3  1  3232.3089
2034  3  1  2849.6188
2035  3  1  2999.1116
2036  3  1  3542.1479
2037  3  1  2652.1771
2038  3  1  3064.0652
2039  3  1  3247.7975
2040  3  1  3229.7165
2041  3  1  3081.9091
2042  3  1   291.8108
2043  3  1   485.8453
2044  3  1   413.5925
2045  3  1  1457.6885
