pseudo ref pts
2019       21508.7744  0.5961  0.4710  0.9092  0.9181       14550.5780
2020       19549.1120  0.4749  0.4102  0.8901  0.8591       13663.2823
2021       25967.3982  0.3483  0.3689  1.4094  1.1715       14502.6499
2022       17227.6705  0.4468  0.3358  1.0102  0.8994       13944.5273
2023       15502.5251  0.4764  0.3689  1.0903  0.9174       14937.6403
2024       12634.6134  0.3947  0.4229  1.8522  0.8580       15279.2760
2025       24376.1664  0.2961  0.4321  3.4401  1.4957       17197.0020
2026       21199.0515  0.4354  0.4431  2.2072  1.0777       15032.3305
2027       25952.3491  0.3250  0.4110  0.3871  1.4197       16059.6119
2028       19247.0461  0.4624  0.4238  0.2396  1.0713       15500.7620
2029       12251.7741  0.7864  0.4465  0.3669  0.7025       14705.6134
2030        9643.4116  0.5268  0.3565  1.1225  0.6593       13814.2931
2031       11471.2677  0.4073  0.2728  1.5180  0.7939       13849.0021
2032        8464.3573  0.5165  0.3598  0.3720  0.6509       13762.3754
2033        9005.0619  0.6175  0.4157  0.4436  0.7667       15110.3295
2034        6406.9150  0.8519  0.4342  0.5322  0.6543       14799.2005
2035        5473.5183  1.1879  0.5017  0.8941  0.6547       15304.5401
2036        5022.1755  0.9903  0.3750  0.8689  0.7513       14156.1152
2037        4442.7477  1.1379  0.3678  0.6847  0.8439       14563.1411
2038        2874.2727  1.8030  0.4224  0.6858  0.6401       13910.8692
2039        2288.9155  3.1614  0.4377  0.6611  0.5930       12976.5460
2040        1698.1922  4.1543  0.3697  1.3442  0.4786       11630.5479
2041        2857.2702  1.7423  0.3714  1.5060  0.6201       11705.5272
2042        9015.8611  0.0631  0.2196  2.6035  1.4072       13535.8434
2043       13713.9801  0.0628  0.2566  0.6549  1.6820       13807.8948
2044       13777.5870  0.2559  0.4503  0.3031  1.2360       14116.1297
2045       18354.4218  0.1782  0.3048  1.4986  1.3346       15667.6918
