Year Ft Rg C
2019  3  1  3033.0648
2020  3  1  2807.9353
2021  3  1  2102.2152
2022  3  1  2718.5526
2023  3  1  3073.7490
2024  3  1  3701.6881
2025  3  1  4281.8756
2026  3  1  3996.5632
2027  3  1  4917.0263
2028  3  1  4642.4722
2029  3  1  1802.9635
2030  3  1   814.3329
2031  3  1  1583.7919
2032  3  1  3821.6920
2033  3  1  3826.2035
2034  3  1  4208.5130
2035  3  1  3660.4124
2036  3  1  2493.0622
2037  3  1  2290.9848
2038  3  1  2235.8712
2039  3  1  2321.5870
2040  3  1  2285.0134
2041  3  1  2086.1706
2042  3  1  2142.8077
2043  3  1  1924.7052
2044  3  1  2787.6763
2045  3  1  2601.6381
