pseudo ref pts
2019       33112.7668  0.2985  0.3130  1.2531  1.3862       31494.5999
2020       32207.4068  0.2752  0.3622  1.2097  1.3647       32164.7544
2021       28529.5418  0.2501  0.3235  1.4966  1.3368       29645.0638
2022       31240.8603  0.2588  0.3705  1.9265  1.4003       30452.6424
2023       23973.5262  0.3424  0.4043  1.2098  0.9425       28235.7325
2024       23386.2647  0.3310  0.3769  0.5458  0.8347       26199.0639
2025       23038.2904  0.3309  0.3643  0.1353  0.7886       25611.2133
2026       27675.8501  0.2486  0.3099  0.1698  1.0012       27196.6449
2027       23314.7501  0.4013  0.4356  0.3039  0.9023       30620.3477
2028       27472.8077  0.3683  0.3359  4.1462  1.2441       33109.1095
2029       11835.1849  0.5187  0.3114  6.9972  0.5860       27076.0652
2030       18315.6957  0.1654  0.4257  6.3358  0.7800       27446.0853
2031       33414.6025  0.1218  0.3858  2.0862  1.0330       31343.4293
2032       40816.7744  0.2071  0.2597  0.1914  1.1533       26465.1129
2033       41562.4815  0.1970  0.2290  0.1206  0.9828       24964.5504
2034       37066.4179  0.2837  0.3958  0.2298  0.8702       26524.6512
2035       36720.6128  0.2923  0.3989  0.8156  0.8821       27984.5596
2036       45693.5382  0.3143  0.3752  2.7572  1.1997       29365.0066
2037       29972.5929  0.4903  0.4784  2.1843  0.9070       32248.2267
2038       24691.3726  0.4648  0.4247  2.0777  0.8394       30519.1077
2039       19493.1761  0.5894  0.4813  0.8393  0.7033       29192.4387
2040       18283.3616  0.4467  0.5394  0.5115  0.6939       28381.1114
2041       13195.9775  0.4502  0.4363  0.3984  0.5406       24607.0827
2042       13325.4365  0.3426  0.4448  0.6866  0.5557       26507.2003
2043       21937.7452  0.2385  0.4179  1.9603  0.8503       29376.5056
2044       26723.2296  0.3625  0.5333  2.3425  0.9239       31397.0403
2045       29401.4889  0.2539  0.4283  1.6262  0.9513       30200.4367
