Year Ft Rg C
2019  3  1  3419.1485
2020  3  1  1685.4390
2021  3  1  2184.7338
2022  3  1  2982.5436
2023  3  1  5480.5290
2024  3  1 11255.3791
2025  3  1  9667.8090
2026  3  1 11278.7935
2027  3  1 12353.0506
2028  3  1 16248.6660
2029  3  1 14988.0462
2030  3  1 14413.2516
2031  3  1  8769.9220
2032  3  1  2820.8269
2033  3  1  5391.4610
2034  3  1 14011.0347
2035  3  1 17279.7073
2036  3  1 13938.8992
2037  3  1 15408.1467
2038  3  1 11522.1267
2039  3  1  8617.3815
2040  3  1  7614.8672
2041  3  1  9349.9568
2042  3  1  9585.4794
2043  3  1 10427.0837
2044  3  1  7305.3216
2045  3  1  7737.2686
