pseudo ref pts
2019       29263.0440  0.2559  0.2717  1.2967  1.1909       93691.3354
2020       46082.1082  0.1244  0.3275  1.6081  1.8112      101074.0274
2021       73070.7522  0.0843  0.3466  3.6166  2.3629      110785.7389
2022      175104.0467  0.1666  0.4662  4.2083  3.5028      129187.0929
2023      273427.9915  0.1207  0.3819  4.1592  4.1277      118680.1060
2024      230963.5491  0.4863  0.3194  1.9004  3.0470      110827.6876
2025      209964.9742  0.7088  0.3328  2.6806  2.6899      118403.3248
2026      209494.2829  0.3497  0.3086  2.8417  2.4565      124782.0653
2027      159001.5684  0.4921  0.3614  1.3501  1.7862      114746.1237
2028      176248.9708  0.5614  0.3221  1.9111  2.1784      119531.6983
2029      240250.5156  0.5212  0.3350  2.8739  3.1810      126576.7651
2030      211984.7284  0.7045  0.2228  3.6945  3.0893      121690.6945
2031      119350.2387     NaN  0.2481  2.7441  2.4229      115160.1256
2032       96909.7222  0.3375  0.3264  5.0222  2.3045      123493.7602
2033      162231.6711  0.2503  0.3818  4.8461  2.7548      121096.6371
2034      176839.0992  0.4633  0.4545  2.7410  2.2105      110813.9830
2035       91944.5136  0.5084  0.3444  0.3002  1.2237       88215.3827
2036       88514.0742  0.3100  0.3249  0.3308  0.9292       90361.0147
2037       71886.6221  0.4359  0.4311  0.2675  0.6397       85238.7253
2038       50173.2316  0.5264  0.5009  0.5604  0.4821       79283.3563
2039       44600.8772  0.4711  0.4319  0.4970  0.4701       81440.3518
2040       47433.5340  0.2681  0.4454  0.7790  0.5481       86717.9807
2041      104526.0986  0.1952  0.3998  1.3482  1.0752       97629.8107
2042      130475.8998  0.2562  0.3355  1.4288  1.2778      100458.7729
2043      108800.6385  0.2708  0.3381  0.5763  1.1623       98590.0265
2044      120627.3437  0.2476  0.2905  1.0006  1.3014       97773.5762
2045      113931.8804  0.2471  0.2600  1.2749  1.3140       99404.8966
