Year Ft Rg C
2019  3  1  4140.7018
2020  3  1  2716.4491
2021  3  1  2560.4606
2022  3  1  3728.1186
2023  3  1  2434.8669
2024  3  1  3038.7619
2025  3  1  2734.1112
2026  3  1  3146.0904
2027  3  1   782.7859
2028  3  1   491.0623
2029  3  1   840.4220
2030  3  1   947.8751
2031  3  1   857.7977
2032  3  1   930.0391
2033  3  1   891.6695
2034  3  1   883.0834
2035  3  1   903.3113
2036  3  1  1646.3620
2037  3  1  1503.9013
2038  3  1  2088.5853
2039  3  1  2448.0252
2040  3  1  3059.9242
2041  3  1  2418.9867
2042  3  1  2503.5268
2043  3  1  2176.2070
2044  3  1  1535.7515
2045  3  1  1479.5157
