pseudo ref pts
2019       22553.8496  0.3323  0.3613  0.7912  0.8182       15805.8907
2020       29218.6785  0.2581  0.3667  1.1406  1.0350       16966.0210
2021       30072.6301  0.2732  0.4369  1.0723  1.0770       18068.4342
2022       24089.7587  0.4682  0.4767  1.0755  1.0528       18228.3049
2023       13195.3900  1.2180  0.8004  0.7604  0.7095       17032.6805
2024       10982.9860  0.8639  0.5468  1.0095  0.6829       16392.8170
2025        9083.0259  1.1576  0.5516  1.3043  0.6634       16973.7082
2026        7954.1574  0.7789  0.4374  1.5957  0.6810       15329.9717
2027        7320.4871  0.3509  0.3290  1.4544  0.6005       13472.0819
2028       11582.4112  0.2143  0.4376  0.9071  0.8600       13696.9775
2029       18339.4344  0.1430  0.3619  0.7268  1.1710       14285.3802
2030       15080.4003  0.3029  0.3812  0.2654  0.8940       14145.7111
2031       19491.3307  0.2560  0.3408  0.4453  1.0650       14896.6122
2032       15911.4908  0.3067  0.3611  0.7579  0.8969       15013.8188
2033       11920.4083  0.5287  0.4693  1.2371  0.6557       14071.5250
2034       10818.0920  0.4738  0.5745  1.0909  0.6523       13831.9355
2035       14171.0375  0.3328  0.5602  1.0369  0.9197       15506.0493
2036       10218.7012  0.5299  0.4971  1.1380  0.6278       14291.5397
2037       15882.5058  0.4394  0.5051  1.6259  0.8608       14968.1946
2038       19660.6749  0.3342  0.4006  1.0897  0.9221       14089.0787
2039       20715.7474  0.3799  0.4830  0.5003  0.8662       15011.2316
2040       15157.4837  0.5342  0.4102  0.2896  0.6180       12942.7869
2041       19981.2917  0.4050  0.3803  0.4009  0.7784       14016.7898
2042       16745.2210  0.4209  0.4915  0.5027  0.7423       14815.7876
2043       10876.3458  0.5362  0.4225  0.6935  0.5128       13332.1047
2044       10363.1247  0.3733  0.5355  1.0217  0.4882       13865.6413
2045       15302.8727  0.2517  0.4267  0.8212  0.6538       14703.9957
