Year Ft Rg C
2019  3  1  3343.7924
2020  3  1  2411.6154
2021  3  1  2195.5658
2022  3  1  2679.7054
2023  3  1  2238.2288
2024  3  1  2152.0516
2025  3  1  1469.4948
2026  3  1  1048.7176
2027  3  1  1090.4899
2028  3  1  1383.5960
2029  3  1  1444.4126
2030  3  1  1095.9239
2031  3  1   963.5221
2032  3  1  1055.1043
2033  3  1   984.5475
2034  3  1   879.1624
2035  3  1   880.9834
2036  3  1   968.6200
2037  3  1   947.3747
2038  3  1  1137.7015
2039  3  1  1071.3495
2040  3  1  1134.2151
2041  3  1  1000.9445
2042  3  1   994.9587
2043  3  1   871.3235
2044  3  1   910.9239
2045  3  1   908.7022
