pseudo ref pts
2019       40265.2771  0.2835  0.3747  1.4308  1.4999       16557.5133
2020       36444.8057  0.3673  0.3786  1.2792  1.3869       15802.8484
2021       28244.3047  0.3481  0.3519  0.7623  1.2399       16116.0387
2022       20334.2064  0.4237  0.4517  1.0302  1.0727       16684.6873
2023       15270.0254  0.5322  0.3347  1.1467  0.8465       15256.5839
2024       22914.3318  0.2184  0.2578  3.2076  1.3665       17404.0654
2025       18287.1557  0.2251  0.2753  1.8863  1.1320       16523.6632
2026       14686.3307  0.2464  0.3650  1.1557  1.0275       16732.2588
2027       20977.7437  0.1536  0.2602  1.2402  1.3882       16253.8106
2028       21411.7563  0.1696  0.2946  0.9170  1.4111       16028.2915
2029       22148.0212  0.1868  0.3088  1.1324  1.4359       16523.7896
2030       33013.9291  0.2047  0.4249  2.1749  2.0071       19083.0397
2031       36084.6622  0.1789  0.3929  1.9715  2.0171       18894.7773
2032       39832.7897  0.2636  0.3059  1.2348  2.1986       18498.4606
2033       28159.7587  0.4177  0.3433  2.0682  1.8335       18163.0360
2034       18609.0143  0.4607  0.2628  1.6891  1.2191       15197.9597
2035       20788.3134  0.3942  0.2664  3.0237  1.2345       15095.1513
2036       21294.1618  0.2230  0.3044  0.5831  1.4692       15750.6186
2037       22328.1549  0.2212  0.3355  0.9562  1.6166       16507.8490
2038       21211.1232  0.3110  0.3439  0.9335  1.4944       16534.1784
2039       14215.5549  0.3580  0.3014  1.6132  1.1024       14438.3771
2040       13903.8869  0.2089  0.2918  0.8564  1.1021       15257.8939
2041       18055.8572  0.2232  0.3961  1.0466  1.3550       17096.4854
2042       12257.0780  0.3266  0.3523  1.0482  0.9666       16011.5333
2043       11951.7313  0.4334  0.3706  1.2656  0.9258       14852.3995
2044       16192.3072  0.1986  0.3525  1.3108  1.1327       15367.4391
2045       18994.5243  0.1379  0.2686  0.6446  1.3165       15356.9441
