Year Ft Rg C
2019  3  1  3232.0003
2020  3  1  1279.4559
2021  3  1  2120.8159
2022  3  1  3082.6219
2023  3  1  3360.3997
2024  3  1  3383.4620
2025  3  1  3105.8835
2026  3  1  1708.3405
2027  3  1  1282.3719
2028  3  1   956.3175
2029  3  1  1454.5095
2030  3  1  1687.3595
2031  3  1  2473.6851
2032  3  1  4375.9223
2033  3  1  5188.9187
2034  3  1  6699.1998
2035  3  1  5518.6729
2036  3  1  3601.4542
2037  3  1  2548.2522
2038  3  1  2608.3866
2039  3  1  2770.9744
2040  3  1  3116.9903
2041  3  1  3187.8486
2042  3  1  2895.6976
2043  3  1  4471.8839
2044  3  1  7254.6002
2045  3  1  6722.8438
