pseudo ref pts
2019       26665.9725  0.3258  0.3643  1.2233  1.1112       33426.4664
2020       26704.5743  0.1743  0.2867  1.1987  1.0314       33529.8493
2021       35205.6072  0.1564  0.3102  1.9110  1.3376       34980.4016
2022       41286.4811  0.2121  0.3279  1.6180  1.5201       34947.9848
2023       37265.6515  0.2440  0.3709  1.2912  1.3530       35232.5007
2024       39152.8585  0.2875  0.3697  0.5515  1.3722       35039.9945
2025       38405.8940  0.2459  0.2966  0.6184  1.4628       34652.2411
2026       21302.0264  0.4634  0.3830  0.7951  0.9482       28562.6745
2027       24175.2057  0.4876  0.3595  1.4663  1.1799       28498.1708
2028       17202.3627  0.4444  0.4984  3.4105  0.9532       29313.5087
2029       21102.9382  0.3541  0.3730  2.1968  1.0057       28555.3565
2030       32038.6292  0.1870  0.3579  5.0015  1.3893       30094.9467
2031       46345.6061  0.1477  0.3171  1.2674  1.4795       29355.1356
2032       58232.1442  0.2769  0.4076  1.1016  1.4331       30748.7866
2033       70987.3633  0.2214  0.3568  0.2978  1.5256       30559.6226
2034       67999.6672  0.3887  0.4171  0.4608  1.3740       31054.7978
2035       57960.3643  0.3745  0.3497  0.6623  1.2147       31685.7971
2036       32698.7741  0.4424  0.3389  1.1044  0.7971       30265.9411
2037       27916.9445  0.5478  0.3616  1.7719  0.6954       29479.1017
2038       25999.3823  0.2524  0.3119  1.0489  0.7530       28944.7254
2039       47956.2231  0.1366  0.2381  1.8947  1.3625       30859.4508
2040       58553.5002  0.1330  0.2321  0.8914  1.6081       32815.8860
2041       66552.4446  0.1551  0.2977  3.0768  1.9026       34713.5923
2042       68337.1636  0.2340  0.3008  1.9185  1.5359       33601.5564
2043       75315.8834  0.2346  0.3885  3.3798  1.5332       35205.6296
2044       60684.5914  0.4061  0.4049  0.5279  1.2140       30329.9407
2045       44209.5941  0.5388  0.4647  0.6299  0.7966       27962.8338
