Year Ft Rg C
2019  3  1  3415.0314
2020  3  1  2417.5345
2021  3  1  2477.4588
2022  3  1  2615.9570
2023  3  1  2198.4601
2024  3  1  2487.3758
2025  3  1  2779.8950
2026  3  1  2245.4191
2027  3  1   365.4990
2028  3  1   401.4831
2029  3  1   412.2324
2030  3  1   406.0511
2031  3  1   359.6255
2032  3  1   376.7059
2033  3  1   380.8216
2034  3  1   388.7391
2035  3  1   455.3518
2036  3  1   392.5865
2037  3  1   389.1866
2038  3  1   380.9780
2039  3  1   430.8101
2040  3  1   346.2762
2041  3  1   448.5762
2042  3  1  1478.9565
2043  3  1  1459.4570
2044  3  1   963.9618
2045  3  1   865.2820
