pseudo ref pts
2019       35718.1349  0.2457  0.3710  1.3977  1.3464       18131.1463
2020       31034.6009  0.2537  0.3480  1.1813  1.2071       18088.4024
2021       33215.2206  0.2635  0.3803  1.3897  1.3912       17553.3326
2022       31118.1908  0.3471  0.3762  1.4561  1.3370       18591.5379
2023       25580.6858  0.4279  0.3283  1.1760  1.3395       17494.4310
2024       16287.6739  0.5695  0.3601  0.9285  1.1079       16621.4283
2025       12745.2370  0.7582  0.2920  1.5604  1.0956       16741.4706
2026        8179.6662  0.5666  0.2995  2.3461  0.8103       16298.2722
2027       14990.5105  0.1305  0.2669  2.8225  1.3867       18264.9169
2028       12599.1005  0.2017  0.3549  0.7228  1.0841       14457.6642
2029        8683.5511  0.3354  0.4294  0.1558  0.6617       12886.1252
2030       14356.8457  0.1637  0.3425  0.4206  0.9730       15360.0424
2031       14978.7936  0.2210  0.4311  0.8478  0.8840       14876.0068
2032       15549.0506  0.3239  0.5287  2.4070  0.8783       17556.1127
2033       18641.3480  0.2507  0.4180  1.0983  1.0413       16771.9788
2034       15352.8345  0.3337  0.4216  0.5945  0.9404       15767.7503
2035       14689.6663  0.2964  0.3254  0.3708  1.0141       15560.4877
2036       11604.2812  0.2571  0.2897  0.7784  0.8395       15814.4449
2037        9602.0265  0.3563  0.2989  0.8289  0.7497       13834.8535
2038        7618.6884  0.2842  0.3749  1.7829  0.6888       14156.4485
2039       13156.2278  0.1642  0.3688  2.7657  1.1893       17400.7585
2040       22154.0992  0.1170  0.2914  2.9073  1.6432       17957.4362
2041       21367.7296  0.1529  0.4276  1.2477  1.4940       17293.9467
2042       19327.7207  0.3436  0.3576  0.6080  1.2724       16007.3775
2043       10135.4462  0.5788  0.4048  0.6142  0.7091       14133.7474
2044       10296.5359  0.2343  0.3935  0.9232  0.6621       15033.5902
2045        9515.2745  0.2547  0.3975  0.5552  0.5278       13386.4879
