Year Ft Rg C
2019  3  1  3138.2815
2020  3  1  1365.4980
2021  3  1  2083.1455
2022  3  1  4154.6669
2023  3  1  5814.8766
2024  3  1  5657.2982
2025  3  1  7358.4445
2026  3  1  4597.2741
2027  3  1  5964.3546
2028  3  1  6057.6771
2029  3  1  7630.1343
2030  3  1 15824.1768
2031  3  1 19609.5647
2032  3  1 19373.2009
2033  3  1 16565.6836
2034  3  1 17246.9133
2035  3  1 10147.4915
2036  3  1 13833.4663
2037  3  1 11244.1595
2038  3  1 10919.7005
2039  3  1 12378.5448
2040  3  1 12983.0493
2041  3  1 13255.7276
2042  3  1 17224.2137
2043  3  1 13053.8170
2044  3  1  8119.6278
2045  3  1  7427.5601
