pseudo ref pts
2019       13605.0423  0.5105  0.4100  0.5098  0.5185       82525.9215
2020       28532.9793  0.1243  0.4240  0.8882  1.0512      102035.7765
2021       60866.1810  0.0578  0.2830  1.2293  1.7749      103760.1739
2022       79545.6744  0.1368  0.3292  1.2096  1.7450      107999.8978
2023       75792.4366  0.1338  0.3001  0.8643  1.5082       98024.3171
2024       65302.6377  0.1820  0.2582  0.8056  0.9683       93595.7890
2025       68619.6906  0.1805  0.2636  0.7305  0.9185       91573.7644
2026       73286.2173  0.1060  0.1946  1.9834  0.8974       88279.9894
2027       75328.7335  0.1264  0.2572  1.4850  0.7749       93283.0334
2028       89138.1965  0.1606  0.4129  1.3879  0.7545       96334.5448
2029       87522.0803  0.1420  0.3012  0.5437  0.6531       84294.4062
2030       92409.8826  0.3014  0.3796  0.3701  0.5909       83745.4808
2031       93623.3603  0.2858  0.3534  0.4708  0.5361       78409.5959
2032      162351.1111  0.1658  0.2736  0.4036  0.8779       89030.0838
2033      143106.4762  0.1880  0.2689  0.5982  0.7465       87000.9421
2034      150919.7684  0.2059  0.2859  0.8368  0.8174       92755.5032
2035      185114.5789  0.2013  0.3378  1.4800  1.0586       99807.2968
2036      184233.0080  0.2343  0.2990  1.9547  1.1314      105450.1730
2037      130684.9220  0.3273  0.3365  0.7940  0.8906      102613.4469
2038      114370.2241  0.3312  0.3263  1.9770  0.8260       93760.6662
2039      177546.6471  0.2241  0.3425  1.6554  1.2569      113758.9779
2040      166448.9398  0.2738  0.2894  1.7856  1.1963       94939.6896
2041      162736.9852  0.2784  0.3250  0.2710  1.2663       95390.7452
2042      152270.5053  0.4329  0.4363  0.4510  1.2810       98170.6400
2043       77748.4072  0.7076  0.4736  0.3251  0.7799       87140.4607
2044       70903.5899  0.5675  0.4854  1.1281  0.7887       87730.7759
2045       38233.6156  0.8290  0.5396  0.9160  0.5226       79840.0534
