Year Ft Rg C
2019  3  1  3115.7930
2020  3  1   837.6533
2021  3  1  1621.5452
2022  3  1  3499.1046
2023  3  1  4191.6946
2024  3  1 10212.3121
2025  3  1 14947.6805
2026  3  1 31408.1152
2027  3  1 19902.5765
2028  3  1 17683.4693
2029  3  1 10010.6905
2030  3  1  6911.4885
2031  3  1  5807.9826
2032  3  1  6899.8259
2033  3  1  5077.4479
2034  3  1  7635.8351
2035  3  1  5502.6462
2036  3  1  4110.8972
2037  3  1  2930.6248
2038  3  1  2280.9768
2039  3  1  3839.6456
2040  3  1  8167.0466
2041  3  1  9091.8171
2042  3  1 12888.9159
2043  3  1 14884.9863
2044  3  1 17173.0222
2045  3  1 11607.5477
