pseudo ref pts
2019       30154.8758  0.2469  0.2506  1.1538  1.0846       93277.5870
2020       26777.6723  0.1526  0.3160  0.9577  1.0037       90344.0602
2021       37520.9786  0.1067  0.3207  0.7287  1.0966       92545.2297
2022       53948.2114  0.2178  0.3265  3.8979  1.1431       92060.6385
2023       93583.6488  0.1623  0.4018  4.0825  1.4129       95104.5634
2024      197278.8488  0.2018  0.3620  5.5619  1.8654      100240.2277
2025      249035.8164  0.1300  0.2904  0.2966  1.9258       99472.2535
2026      246588.0111  0.2652  0.2988  0.2349  1.5051       99589.9548
2027      225508.2883  0.2576  0.2902  0.2713  1.3923       96376.3583
2028      134537.3901  0.3787  0.2885  1.0295  0.9433       90711.0905
2029      104114.6640  0.4637  0.2733  1.6191  0.8616       88571.8818
2030       84376.7800  0.2461  0.2640  1.2216  0.8799       88500.4625
2031      125004.8213  0.1583  0.2296  1.1552  1.4037       97454.4964
2032      119676.4458  0.1735  0.2350  0.8919  1.5260      106116.0179
2033      116274.5669  0.2118  0.3486  1.6187  1.8091      116736.1418
2034      103323.7229  0.2609  0.2329  2.1260  1.6781      107081.2800
2035       78038.5998  0.3796  0.3074  1.5098  1.3759      101780.3159
2036       46394.1037  0.3237  0.3865  0.7109  0.9932       97945.9800
2037       35503.1656  0.3628  0.3253  1.1867  0.7815       92029.0452
2038       41954.9343  0.1727  0.3586  2.2028  0.8570       89055.9346
2039       54934.4185  0.1529  0.3251  2.1745  0.9301       80710.8911
2040       95530.4214  0.2396  0.4169  0.9045  1.3886       87700.1200
2041       94196.6514  0.2247  0.4136  1.1624  1.2308       87866.6877
2042      120492.1535  0.3455  0.3726  1.0855  1.2401       89786.3628
2043      197021.4537  0.2100  0.3614  2.6326  1.8087       99659.8757
2044      187239.7092  0.3304  0.3355  0.4384  1.7009       98149.7979
2045      132542.4237  0.4913  0.4375  0.5647  1.2624      102969.5040
