Year Ft Rg C
2019  3  1  3933.2221
2020  3  1  1384.6532
2021  3  1  1454.8515
2022  3  1  2871.5009
2023  3  1  2283.5141
2024  3  1  1820.6076
2025  3  1  1805.4803
2026  3  1  1825.4150
2027  3  1  2246.3131
2028  3  1  2032.2038
2029  3  1  1956.5879
2030  3  1  2278.4901
2031  3  1  3166.8173
2032  3  1  4470.1713
2033  3  1  3330.4244
2034  3  1  2888.3134
2035  3  1  2107.5641
2036  3  1  2542.0292
2037  3  1  2367.6297
2038  3  1  3591.5932
2039  3  1  5408.4378
2040  3  1  5472.2044
2041  3  1  4750.4212
2042  3  1  3530.7825
2043  3  1  2810.0735
2044  3  1   945.0601
2045  3  1   949.2277
