pseudo ref pts
2019       44120.3165  0.1928  0.2514  1.5162  1.7456       33405.0864
2020       36367.0570  0.1933  0.2932  1.4739  1.4300       35256.9712
2021       45724.0578  0.1904  0.4124  1.5970  1.6970       41067.3845
2022       54412.3028  0.2704  0.3975  1.9280  2.0769       44800.1774
2023       42367.8872  0.3530  0.3614  2.3556  1.8053       38874.2992
2024       54062.8927  0.2835  0.3674  3.9889  2.2975       41766.3928
2025       72665.3656  0.1939  0.2870  4.8252  2.7334       41212.4526
2026       67028.8770  0.2625  0.3021  1.4161  2.5026       38788.6813
2027       35609.9501  0.4741  0.3470  0.8094  1.4366       33435.2469
2028       21428.2769  0.6148  0.5295  0.9320  0.9210       34368.2738
2029       33276.3603  0.4710  0.5702  2.8013  1.3154       38153.0790
2030       38843.1574  0.6216  0.7310  2.1579  1.3509       35222.4301
2031       41782.4431  0.4443  0.4540  0.9419  1.3242       31548.3970
2032       47602.6757  0.4685  0.4852  0.5693  1.5235       35355.3222
2033       25478.1463  0.6778  0.5122  0.5999  0.9247       32926.3154
2034       30393.3595  0.3056  0.3423  1.8315  1.1820       32616.4866
2035       25019.4411  0.2658  0.2798  2.0112  0.8961       30515.9000
2036       29082.5145  0.1621  0.2998  2.5024  0.9628       30071.5248
2037       47369.9493  0.1189  0.2492  1.6312  1.2394       32084.2852
2038       76243.5198  0.1562  0.3073  2.1682  1.5262       34096.7062
2039       83252.3232  0.1614  0.3488  0.4601  1.5414       33621.9232
2040       63845.6759  0.2766  0.3165  0.1969  1.0923       36101.6520
2041       48293.7395  0.4099  0.3559  0.2660  0.8909       36084.5427
2042       30672.9224  0.3080  0.2669  0.6640  0.7085       31302.3103
2043       32080.7268  0.3534  0.2721  1.9538  0.8570       31686.0814
2044       16351.2462  0.2861  0.3004  0.7155  0.5402       28171.1819
2045       25482.3355  0.2148  0.3324  1.0279  0.9749       33913.3834
