Year Ft Rg C
2019  3  1  3232.0003
2020  3  1  2294.0295
2021  3  1  3018.5819
2022  3  1  2165.1798
2023  3  1  1795.8377
2024  3  1  1841.6470
2025  3  1  2032.8064
2026  3  1  1596.3870
2027  3  1  1720.3478
2028  3  1  1630.2721
2029  3  1  1917.7771
2030  3  1   349.3173
2031  3  1   956.5747
2032  3  1  1908.2994
2033  3  1  2502.1569
2034  3  1  3584.7671
2035  3  1  2913.0849
2036  3  1  2879.8448
2037  3  1  1207.4468
2038  3  1  1121.7300
2039  3  1  1106.4145
2040  3  1  1580.8068
2041  3  1  1463.6578
2042  3  1  1113.4877
2043  3  1  1527.4492
2044  3  1  3101.9615
2045  3  1  3046.6752
