pseudo ref pts
2019       26665.9725  0.3263  0.3643  1.2233  1.1112       16713.2332
2020       25701.2753  0.2420  0.2889  1.1987  0.9926       16830.6632
2021       29288.4657  0.2259  0.3150  1.9106  1.2192       17487.3167
2022       28860.2563  0.2423  0.3305  1.6175  1.3481       17414.1489
2023       23083.3338  0.3010  0.3709  1.2904  1.1677       17560.9011
2024       21748.9872  0.3244  0.3697  0.5510  1.1979       17477.9333
2025       19906.2610  0.3365  0.2966  0.6176  1.3224       17290.8902
2026        9772.6109  0.7054  0.3830  0.7933  0.8582       14323.7670
2027       10009.8608  0.9788  0.3623  1.4630  1.0704       14290.6685
2028        6241.4600  0.9234  0.5100  3.3971  0.8463       14663.8923
2029        7889.7903  0.6180  0.3846  2.1903  0.9523       14263.9626
2030       13058.4439  0.1343  0.3523  4.9959  1.4092       15056.6992
2031       21164.4568  0.1211  0.3159  1.2702  1.6016       14641.4977
2032       27969.7396  0.2610  0.4076  1.1054  1.5603       15360.3995
2033       34933.7818  0.2101  0.3568  0.2988  1.6333       15305.0830
2034       34037.4320  0.3856  0.4202  0.4618  1.4195       15489.3243
2035       29134.8434  0.3670  0.3524  0.6631  1.2342       15796.3682
2036       16505.5816  0.4979  0.3441  1.1043  0.8043       15104.1179
2037       13581.6693  0.5634  0.3616  1.7709  0.6884       14734.5172
2038       12695.1204  0.2390  0.3095  1.0480  0.7458       14523.4222
2039       23796.9208  0.1245  0.2363  1.8934  1.3584       15460.9452
2040       29485.6598  0.1286  0.2321  0.8914  1.6275       16444.4362
2041       33654.8373  0.1448  0.2977  3.0784  1.9254       17362.4846
2042       34719.6809  0.2135  0.3008  1.9196  1.5479       16780.1128
2043       38557.3923  0.2061  0.3855  3.3816  1.5417       17628.0121
2044       31467.5385  0.3761  0.4049  0.5282  1.2240       15130.0133
2045       23065.1376  0.5098  0.4647  0.6302  0.8037       13959.1887
