Year Ft Rg C
2019  3  1  2799.2139
2020  3  1  1837.2525
2021  3  1  2018.2443
2022  3  1  2555.2572
2023  3  1  2145.2103
2024  3  1  1979.6442
2025  3  1  2596.7228
2026  3  1  1964.4759
2027  3  1  1763.5018
2028  3  1  1891.7738
2029  3  1  2116.4279
2030  3  1  3498.9561
2031  3  1  3646.3740
2032  3  1  3317.2846
2033  3  1  3472.7878
2034  3  1  1309.2303
2035  3  1  1581.2369
2036  3  1  2572.5743
2037  3  1  2285.2483
2038  3  1  1128.4564
2039  3  1  1402.9051
2040  3  1  1377.0543
2041  3  1  1642.6875
2042  3  1  1388.2715
2043  3  1  1369.8959
2044  3  1  1585.0275
2045  3  1  1619.7924
