pseudo ref pts
2019       10343.4740  0.4952  0.2879  0.5563  0.4626       12618.5110
2020       13300.6296  0.1482  0.2912  0.7302  0.6161       13993.6456
2021       19291.1795  0.1281  0.3416  1.0944  0.8730       15368.5047
2022       24641.9090  0.2309  0.4465  1.3515  1.1113       16670.3796
2023       12417.1961  0.4192  0.4831  0.9214  0.5807       13802.5353
2024        9425.0270  0.5293  0.5673  0.9196  0.4601       13225.3908
2025       10331.1084  0.5561  0.5178  0.8070  0.4575       12569.6348
2026        7462.9025  0.5980  0.5404  0.8805  0.3434       11365.2485
2027       10421.6979  0.4863  0.5277  0.6106  0.4623       11624.5931
2028       13295.7175  0.3121  0.4471  0.8903  0.5055       12053.0650
2029       14513.7617  0.2378  0.3647  0.1442  0.5019       11965.1325
2030       25201.9741  0.1950  0.3181  0.2835  0.7696       13653.9379
2031       21253.1008  0.2097  0.3024  0.1193  0.6758       13551.7517
2032       13607.0972  0.4486  0.3882  0.4886  0.4884       12281.5310
2033       13227.2736  0.4535  0.3393  1.1734  0.5366       12843.5301
2034       18318.2361  0.1716  0.3042  3.1670  0.8187       14153.5469
2035       25239.5128  0.1773  0.3437  2.1684  1.0787       14096.6910
2036       25571.7903  0.2498  0.2996  0.5926  1.1502       14456.6438
2037       27571.2222  0.2057  0.2657  1.0775  1.3424       15375.8071
2038       22064.4159  0.1612  0.2100  0.6914  1.0588       14303.1328
2039       24659.9782  0.1702  0.2127  1.8592  1.0945       14708.0473
2040       14118.7679  0.2289  0.2712  0.6687  0.6535       14070.2151
2041       28098.7450  0.1680  0.2992  1.5707  1.1948       16422.4498
2042       29205.8849  0.2127  0.3896  0.6868  1.2485       18099.0795
2043       24307.3616  0.3531  0.5275  0.5411  1.0666       17496.2194
2044       16661.3804  0.7608  0.5846  0.5392  0.7822       16267.7553
2045        9641.5720  1.0302  0.4938  0.5893  0.5786       15663.7121
