Year Ft Rg C
2019  3  1  3419.1485
2020  3  1  1684.8321
2021  3  1  1544.5521
2022  3  1  2694.5470
2023  3  1  2881.7121
2024  3  1  1514.2487
2025  3  1  1093.7612
2026  3  1   400.6627
2027  3  1   788.4614
2028  3  1   810.7348
2029  3  1  1137.4820
2030  3  1  1344.3053
2031  3  1  1082.2990
2032  3  1   515.1920
2033  3  1   701.1392
2034  3  1  1407.3176
2035  3  1  2279.0334
2036  3  1  2197.2485
2037  3  1  2652.6516
2038  3  1  2190.6546
2039  3  1  1800.8048
2040  3  1  1957.8801
2041  3  1  2047.5801
2042  3  1  1826.6846
2043  3  1  2175.3744
2044  3  1  1653.1193
2045  3  1  2064.5470
