pseudo ref pts
2019       29263.0440  0.2578  0.2717  1.2967  1.1909       15615.2226
2020       38652.3742  0.1823  0.3326  1.6081  1.5192       16891.9684
2021       42208.3571  0.1492  0.3548  3.6146  1.7856       18395.1320
2022       64690.4839  0.3493  0.4809  4.2054  2.4910       21442.7357
2023       64365.2799  0.3645  0.3878  4.1550  2.7023       19807.6392
2024       37544.3184  0.7870  0.3194  1.8967  1.9899       18451.1137
2025       27257.9189     NaN  0.3328  2.6741  1.8704       19732.5785
2026       24007.5856  0.3264  0.3039  2.8346  1.9236       20821.1862
2027       21728.6570  0.3897  0.3558  1.3464  1.7222       19174.6673
2028       28106.2212  0.3186  0.3172  1.9071  2.3498       19929.5066
2029       45937.2148  0.2533  0.3299  2.8700  3.7744       21171.9169
2030       46180.2441  0.3748  0.2228  3.6980  3.6096       20195.7815
2031       27242.6767  0.7055  0.2481  2.7468  2.7481       19146.4258
2032       21429.9386  0.3470  0.3264  5.0188  2.4359       20658.8436
2033       29487.2017  0.2839  0.3848  4.8397  2.4852       20133.2064
2034       30328.9158  0.3964  0.4510  2.7375  1.9718       18497.6853
2035       16108.6374  0.4602  0.3418  0.3010  1.1106       14745.6443
2036       15722.0142  0.2820  0.3249  0.3319  0.9149       15084.1761
2037       12798.6205  0.4133  0.4311  0.2684  0.6479       14241.7538
2038        8877.0917  0.5460  0.5009  0.5605  0.4837       13257.4818
2039        7715.8457  0.5203  0.4352  0.4968  0.4660       13570.6908
2040        7945.0265  0.3387  0.4522  0.7785  0.5371       14468.4055
2041       16909.0605  0.2247  0.4089  1.3474  1.0434       16210.1492
2042       20832.0257  0.2741  0.3381  1.4282  1.2444       16725.6283
2043       17304.1906  0.3087  0.3407  0.5762  1.1418       16400.0820
2044       18812.7986  0.2946  0.2927  1.0001  1.2858       16274.6652
2045       17342.9151  0.3155  0.2640  1.2739  1.2935       16529.1462
