Year Ft Rg C
2019  3  1  3344.9664
2020  3  1  2567.4545
2021  3  1  3045.3907
2022  3  1  2823.8086
2023  3  1  2385.8504
2024  3  1  2241.0673
2025  3  1  2576.9935
2026  3  1  2443.2757
2027  3  1  2425.0398
2028  3  1  2157.4812
2029  3  1  2551.3356
2030  3  1  2177.6218
2031  3  1  2001.9341
2032  3  1  2372.6328
2033  3  1   457.7318
2034  3  1   633.6158
2035  3  1  1088.8754
2036  3  1  2917.2172
2037  3  1  2273.9882
2038  3  1  2449.1758
2039  3  1  2641.7114
2040  3  1  2361.5988
2041  3  1  2801.5674
2042  3  1  2150.7470
2043  3  1  2236.5242
2044  3  1  2846.5106
2045  3  1  2824.2786
