pseudo ref pts
2019       35004.5827  0.2811  0.3529  1.3911  1.4032       17090.6859
2020       25875.3140  0.3477  0.3203  1.2826  1.0879       15716.6639
2021       20791.0505  0.5078  0.3842  2.5177  0.8985       14667.4515
2022       16368.1537  0.5156  0.4653  1.5330  0.7647       15404.7978
2023       14522.5814  0.5159  0.3888  1.1269  0.6284       14213.0035
2024       19308.2372  0.2383  0.3247  0.1604  0.9720       17458.8150
2025       12909.3836  0.3687  0.4039  0.3804  0.7539       17075.5459
2026        8396.5953  0.4765  0.4014  0.3448  0.5844       15721.5653
2027        9727.6068  0.5242  0.4504  3.2456  0.7835       17531.4984
2028       11791.1938  0.3803  0.3848  1.8187  1.1208       18099.0890
2029        9367.2642  0.4286  0.3396  1.5546  0.9282       16833.5237
2030       11222.7984  0.2954  0.2794  0.7779  1.1462       17410.2179
2031        8943.4896  0.3634  0.3012  1.2548  1.1185       16276.6401
2032        7017.9241  0.5866  0.3541  1.1631  0.8200       14045.5498
2033        9876.0330  0.1830  0.3951  3.0825  0.9911       14849.7297
2034       16283.4992  0.1616  0.3149  1.7342  1.2454       14792.2013
2035       23528.9129  0.1436  0.3951  1.3542  1.4810       15990.0881
2036       23532.2018  0.3468  0.4065  0.3806  1.2386       15343.8513
2037       21630.3736  0.3905  0.3872  0.2575  1.1003       14466.7653
2038       19784.8215  0.6327  0.5976  0.2858  1.0473       15211.4245
2039       25321.6068  0.5207  0.3884  1.0556  1.4006       15585.2927
2040       15876.0928  1.1171  0.4373  1.8866  1.1316       15837.6775
2041        5829.7859     NaN  0.5755  1.3331  0.5917       15307.1260
2042        3063.3945  3.7938  0.4798  1.6334  0.5971       15581.9987
2043        4439.6782  2.1542  0.4670  1.6364  0.9162       16794.3790
2044        6459.9616  0.7544  0.4449  1.5875  1.3324       16869.7595
2045        3934.0424  0.7592  0.3425  0.8670  0.9563       13960.6593
