Year Ft Rg C
2019  3  1  3654.8713
2020  3  1  3590.7226
2021  3  1  3430.3522
2022  3  1  4130.8764
2023  3  1  4889.1493
2024  3  1  4081.9189
2025  3  1  5817.4834
2026  3  1  5679.2809
2027  3  1  3707.4212
2028  3  1  3090.6012
2029  3  1  2288.1065
2030  3  1  1420.4089
2031  3  1  1486.2394
2032  3  1  2630.9059
2033  3  1  3049.9375
2034  3  1  3325.8884
2035  3  1  2503.7560
2036  3  1  4471.4318
2037  3  1  4081.6660
2038  3  1  2567.6434
2039  3  1  2525.7583
2040  3  1  5174.4216
2041  3  1  5276.2243
2042  3  1  6704.7300
2043  3  1  4933.5180
2044  3  1  2088.6753
2045  3  1  2274.3376
