pseudo ref pts
2019       18965.6538  0.5902  0.4910  0.6528  0.5965       27675.2418
2020       21764.8748  0.4078  0.4545  0.7396  0.7229       27965.2962
2021       24251.9399  0.3909  0.4603  1.2681  0.8221       26301.7211
2022       21594.8383  0.6612  0.4986  0.7396  0.6574       24328.4344
2023       22887.8536  0.5396  0.5660  1.0147  0.6833       27307.7772
2024       25334.7095  0.5619  0.5786  0.4918  0.7506       27223.0164
2025       39144.3416  0.3804  0.5213  0.8908  1.1389       29772.2759
2026       35248.6546  0.3949  0.3523  0.3023  1.0171       28762.4182
2027       35705.3807  0.3698  0.3819  0.2500  1.1204       32147.5576
2028       34849.6068  0.2437  0.2468  1.0892  1.2556       32360.4570
2029       29972.9394  0.3208  0.3056  1.8358  1.1413       33593.7023
2030       29950.9647  0.1895  0.3408  3.7451  1.2129       33615.6863
2031       30531.0027  0.2498  0.4464  1.0149  1.2383       32969.3844
2032       21070.2265  0.4946  0.3784  0.8111  0.7936       28424.8564
2033       23756.7287  0.4480  0.4240  1.1644  0.8417       30880.4120
2034       26152.9441  0.2462  0.3096  1.0121  0.8575       30314.0780
2035       30822.5683  0.2224  0.3273  0.9056  0.8934       29833.1298
2036       36787.3704  0.2540  0.3324  0.6371  1.0401       30607.2899
2037       45448.9943  0.1788  0.2645  1.9859  1.3403       31332.0797
2038       38178.8532  0.2097  0.2541  1.8164  0.9871       27890.8962
2039       49827.4607  0.1335  0.2222  2.1495  1.0905       27889.3554
2040       68011.1575  0.1709  0.3128  0.5499  1.3638       30878.7294
2041       51397.9835  0.1804  0.3304  0.2968  1.0047       30203.1688
2042       54019.7575  0.1842  0.2523  0.1477  1.0651       30260.0377
2043       44621.5352  0.2319  0.2522  1.3937  0.8829       29753.0927
2044       47970.1749  0.1386  0.2087  1.8678  0.9372       30116.1374
2045       44053.5165  0.1633  0.2555  4.2622  0.8448       28671.7255
