Year Ft Rg C
2019  3  1  3392.6750
2020  3  1  1995.2266
2021  3  1  2808.7606
2022  3  1  2956.5567
2023  3  1  3439.6986
2024  3  1  2951.4167
2025  3  1  2090.5011
2026  3  1  1657.2745
2027  3  1  1697.0222
2028  3  1  1957.6205
2029  3  1  2437.5989
2030  3  1  2570.2906
2031  3  1  2958.6952
2032  3  1  5084.4508
2033  3  1  5446.6152
2034  3  1  5826.7358
2035  3  1  6225.1553
2036  3  1  5066.2634
2037  3  1  4312.4659
2038  3  1  2387.3228
2039  3  1  2691.6637
2040  3  1  2635.1290
2041  3  1  2709.0254
2042  3  1  3335.4495
2043  3  1  3090.3040
2044  3  1  1939.5420
2045  3  1  2741.2833
