pseudo ref pts
2019       19497.3835  0.4316  0.3605  0.6469  0.6747       26983.0497
2020       25163.8557  0.2150  0.3780  0.8443  0.8655       31547.2801
2021       25735.4039  0.1604  0.3015  0.8131  0.9035       30038.9770
2022       44456.3882  0.1129  0.2287  0.9108  1.3897       32336.3590
2023       73774.2802  0.0673  0.1863  1.0614  2.3431       36291.8812
2024       52026.2245  0.1519  0.2131  0.7584  1.6783       37122.0231
2025       29697.6220  0.2203  0.1848  1.4505  1.1586       32825.7231
2026       30510.9173  0.1062  0.2119  2.6749  1.3032       36235.8029
2027       25977.4402  0.1373  0.2783  3.7088  1.1459       35228.3200
2028       27599.3091  0.1355  0.2470  1.2599  1.1583       31296.8569
2029       25075.7873  0.1612  0.2457  1.9971  0.9852       27999.2272
2030       34965.8480  0.1991  0.3698  1.3822  1.1299       29955.9794
2031       41658.3204  0.1552  0.3080  2.0060  1.0644       29566.2772
2032       64952.3414  0.2025  0.3930  0.6179  1.4756       33160.1231
2033       26367.4484  0.3101  0.3241  0.3050  0.5524       25753.1457
2034       31982.9204  0.2289  0.2905  0.2304  0.6061       26233.8232
2035       31957.6631  0.1985  0.2889  0.4350  0.6099       28076.9895
2036       32711.4046  0.2076  0.2699  0.4039  0.6616       28006.5214
2037       33802.3498  0.2085  0.2755  0.8701  0.7391       30564.4191
2038       46824.6478  0.1181  0.2383  1.0260  1.1369       34992.4256
2039       28501.7408  0.2187  0.3044  1.5342  0.7803       31331.4819
2040       26359.9816  0.2371  0.2936  0.8303  0.7297       28460.9053
2041       23911.8657  0.3001  0.3994  0.8385  0.7479       29014.4827
2042       17290.9982  0.3243  0.3407  0.3623  0.5661       26855.7788
2043       13647.6245  0.4247  0.3525  0.4364  0.4953       25439.3302
2044       17641.2613  0.1658  0.3066  0.7373  0.6531       28045.0740
2045       19577.6803  0.1471  0.2744  0.5581  0.7261       27512.8738
