Year Ft Rg C
2019  3  1  3397.0990
2020  3  1  2320.8770
2021  3  1  2429.4383
2022  3  1  2063.9723
2023  3  1  1706.6340
2024  3  1  2928.8165
2025  3  1  3151.0112
2026  3  1  5184.6296
2027  3  1  3564.7775
2028  3  1  4892.9510
2029  3  1  5733.5950
2030  3  1  1517.3345
2031  3  1  1260.2847
2032  3  1  1345.9749
2033  3  1  2588.3260
2034  3  1  4110.5217
2035  3  1  3569.6837
2036  3  1  3183.4282
2037  3  1  2976.4946
2038  3  1  2228.4736
2039  3  1  3803.1965
2040  3  1  4449.8565
2041  3  1  3805.1630
2042  3  1  3497.0937
2043  3  1  3077.9803
2044  3  1  2991.7228
2045  3  1   528.7349
