pseudo ref pts
2019       24300.0455  0.3141  0.3285  1.0542  0.9481       30802.2759
2020       20641.7322  0.2223  0.3500  0.8158  0.8046       31451.7168
2021       27919.8261  0.1821  0.3136  1.1748  0.9630       31433.4267
2022       33852.5220  0.1703  0.2988  2.1955  1.1983       32606.1525
2023       51492.7093  0.1549  0.3373  2.7485  1.6378       34656.7402
2024       55537.5420  0.2994  0.4379  2.8981  1.5764       34903.0115
2025       98742.2295  0.1787  0.3626  1.6175  2.6123       38071.6363
2026       89366.8238  0.5477  0.5183  2.4088  2.1298       38045.9231
2027       61326.2409  0.8279  0.5953  0.8856  1.5889       36442.9948
2028       29462.7448  1.3752  0.5885  0.7949  0.8898       31007.7796
2029       17855.3378  2.3679  0.5080  0.1589  0.6728       28336.5762
2030        8167.0001  0.8802  0.5905  0.9803  0.5478       29877.8157
2031       14705.7646  0.5605  0.5232  1.3224  0.8719       31561.2788
2032       25848.0454  0.2117  0.5315  4.8603  1.3123       33028.5286
2033       35939.7903  0.1961  0.5096  0.6300  1.6997       32779.0571
2034       25727.9132  0.4970  0.4427  0.4514  0.9722       31216.5489
2035       37395.4400  0.4575  0.4654  0.2458  1.2662       33079.1039
2036       26293.9436  0.6804  0.4727  1.8828  0.9179       31576.3369
2037       20234.4436  1.1563  0.5624  1.3248  0.6763       29489.1609
2038       26229.5459  0.3846  0.4697  3.3340  0.8775       28503.0681
2039       37703.2747  0.2627  0.4540  0.4129  1.3041       31789.9438
2040       35373.3550  0.5123  0.4825  0.5266  1.2633       34144.7748
2041       36952.3767  0.6387  0.5029  0.5207  1.4433       33881.4865
2042       19210.2914  1.2137  0.5962  0.8668  0.8753       33091.6724
2043       10850.2740  2.6355  0.4246  0.8125  0.6498       28575.2265
2044        7049.4361  1.2036  0.5039  1.6854  0.6451       28600.6242
2045       16898.6980  0.1360  0.2787  2.4670  1.4665       30199.5575
