Year Ft Rg C
2019  3  1  3718.6442
2020  3  1  3655.5966
2021  3  1  3801.3069
2022  3  1  2700.2000
2023  3  1  2376.6413
2024  3  1  2987.0782
2025  3  1  3644.7374
2026  3  1  3557.3197
2027  3  1  3106.4000
2028  3  1  6061.3688
2029  3  1  8011.2459
2030  3  1  8102.7455
2031  3  1  6457.0555
2032  3  1  7651.3672
2033  3  1  5581.6961
2034  3  1  2341.8787
2035  3  1  1550.5405
2036  3  1  1439.6465
2037  3  1  1524.4911
2038  3  1  1860.6151
2039  3  1  1368.6754
2040  3  1  1693.6759
2041  3  1  1411.3365
2042  3  1   823.3266
2043  3  1   969.0652
2044  3  1  1360.5762
2045  3  1  1966.9420
