pseudo ref pts
2019       31272.5854  0.4500  0.5323  1.1667  1.0294       32195.9254
2020       28066.9528  0.5315  0.4268  1.0129  0.9480       30074.8962
2021       21924.3454  0.6145  0.4658  0.7073  0.7145       32340.1201
2022       24970.8353  0.3049  0.3799  1.1868  0.8932       32713.2689
2023       25883.0447  0.3257  0.4070  1.3949  0.8732       31834.5812
2024       36238.6238  0.3186  0.4065  1.9026  1.2424       30587.2821
2025       36952.4455  0.2783  0.4363  1.5484  1.2761       32351.2142
2026       38039.0137  0.4760  0.5316  1.5372  1.2591       33206.3354
2027       49327.7330  0.4323  0.5241  3.1694  1.4123       34954.3572
2028       72105.1495  0.4285  0.4957  2.7766  1.5910       38013.3487
2029       39892.1965  0.5750  0.4895  0.6736  0.7742       32577.4927
2030       41191.1862  0.5643  0.5325  0.2142  0.8079       30066.2938
2031       48084.8182  0.5292  0.5266  0.2914  0.8994       31900.3959
2032       57414.7352  0.4857  0.4088  0.7498  1.0979       35468.1786
2033       40555.8466  0.4080  0.3214  0.7565  1.0105       39334.1461
2034       24052.1362  0.3468  0.3466  0.8845  0.8311       35742.4638
2035       17927.2420  0.5429  0.3705  0.7693  0.6988       31735.5422
2036       11240.6242  0.3268  0.3577  0.7418  0.5227       28346.6388
2037       10719.2144  0.5030  0.6109  0.5795  0.5517       29513.0297
2038       12374.0174  0.3603  0.5665  0.3718  0.6891       29018.4197
2039       17244.3732  0.2112  0.4155  0.9694  1.0183       30901.4972
2040       14637.4498  0.3056  0.4090  0.6471  0.7807       29630.1266
2041       21219.9580  0.1511  0.2046  2.5000  1.0196       29963.0578
2042       20743.3182  0.1035  0.1784  1.2028  0.9519       26440.2444
2043       23032.8352  0.0950  0.1899  1.3040  0.9243       25294.6449
2044       26541.0588  0.0812  0.1480  0.5063  1.0735       25886.6103
2045       25296.6773  0.1528  0.2826  0.9180  0.9562       27863.3078
