Year Ft Rg C
2019  3  1  3165.4917
2020  3  1  2570.0305
2021  3  1  3395.1862
2022  3  1  3647.9670
2023  3  1  2269.2222
2024  3  1  2189.5644
2025  3  1  2004.0668
2026  3  1  2359.0278
2027  3  1  2282.7837
2028  3  1  2107.1328
2029  3  1  2380.3876
2030  3  1   652.3654
2031  3  1   621.0352
2032  3  1   617.6734
2033  3  1   587.7358
2034  3  1   644.3100
2035  3  1   711.8686
2036  3  1   723.5399
2037  3  1   589.4012
2038  3  1   731.2512
2039  3  1   725.7822
2040  3  1   665.0385
2041  3  1   604.0794
2042  3  1   641.7088
2043  3  1  1120.1487
2044  3  1   909.6515
2045  3  1   882.0627
