pseudo ref pts
2019       17180.1141  0.5544  0.4495  0.6532  0.5738       14055.2882
2020       21914.9974  0.3379  0.4068  0.8088  0.7067       15218.8248
2021       20321.1902  0.3267  0.4361  0.8924  0.7452       15607.9848
2022       22054.7851  0.3219  0.3553  0.9652  0.9051       15151.9558
2023       17818.8950  0.4432  0.4658  0.9716  0.8404       15594.2957
2024       13266.3688  0.3790  0.3578  0.7331  0.6892       15757.3133
2025       10535.0550  0.5556  0.4017  0.6194  0.6022       15673.3617
2026        8044.0908  0.4504  0.4576  0.5265  0.5377       15560.4608
2027       12530.7703  0.2675  0.3019  0.6928  0.9136       15709.4434
2028        9674.7819  0.4550  0.4658  1.5424  0.7952       15434.7798
2029        7975.2910  0.6023  0.5173  1.4658  0.6468       14592.4700
2030        7662.3234  0.2424  0.3578  1.3639  0.5443       12425.3131
2031       10339.1383  0.1963  0.3640  0.2654  0.6400       12348.3105
2032       15026.1108  0.2242  0.4719  0.1157  0.8005       14041.3145
2033       13307.0894  0.2388  0.4413  0.1921  0.6461       14073.6752
2034       13456.1937  0.2442  0.3462  0.6506  0.6706       14195.9381
2035       13521.0301  0.2929  0.4556  2.0646  0.6939       15229.3398
2036       14278.6260  0.3545  0.5884  0.9186  0.7759       15580.1234
2037       10526.4055  0.4630  0.6508  0.6783  0.6080       15635.2718
2038        9950.7258  0.3278  0.4705  0.6053  0.6103       16385.5649
2039        6641.5975  0.3244  0.3669  0.6320  0.4495       14732.6343
2040        6668.8639  0.2528  0.4525  0.4039  0.4517       14463.6288
2041       10283.6932  0.1549  0.3418  0.7332  0.6679       15564.7454
2042        8718.0189  0.2438  0.3822  0.6316  0.5581       14494.7488
2043       14305.7822  0.1731  0.3711  2.2763  0.9345       14914.8784
2044       14639.8117  0.2163  0.3750  1.1905  0.8510       15238.0605
2045       21117.9503  0.1672  0.4001  1.0085  1.0676       17173.7979
