Year Ft Rg C
2019  3  1  3292.2957
2020  3  1  3472.7333
2021  3  1  3297.9889
2022  3  1  1846.4779
2023  3  1  1733.6812
2024  3  1  1200.8524
2025  3  1  1304.6442
2026  3  1  1077.3321
2027  3  1  1355.3598
2028  3  1  1361.4290
2029  3  1  1722.3274
2030  3  1  3732.2869
2031  3  1  3934.7498
2032  3  1  3556.9783
2033  3  1  4505.0715
2034  3  1  4489.2635
2035  3  1  4530.3810
2036  3  1  3557.4641
2037  3  1  4000.4061
2038  3  1  3977.4217
2039  3  1  3660.3326
2040  3  1  2538.1751
2041  3  1  5691.7958
2042  3  1  8134.5319
2043  3  1  5722.9559
2044  3  1  5732.4889
2045  3  1  4385.4737
