pseudo ref pts
2019       66877.8131  0.2324  0.4166  2.1503  2.2917       38205.1167
2020       72550.4530  0.3939  0.2924  2.3108  2.4454       38354.1537
2021       33144.5860  0.9136  0.4183  1.2254  1.2602       37068.4643
2022       20810.8596  0.4301  0.2739  0.9122  1.0184       32587.0561
2023       28212.3404  0.4717  0.3667  1.3272  1.4907       37713.0350
2024       23029.6239  0.3207  0.3290  1.7214  1.4831       36863.7025
2025       23659.5281  0.3369  0.3011  3.0816  1.6404       35534.4656
2026       20876.8973  0.2472  0.2954  2.5770  1.3502       32919.4963
2027       28314.8700  0.1357  0.2223  2.4039  1.5851       31439.8354
2028       25409.1515  0.1978  0.3091  0.6615  1.2115       28986.0541
2029       30184.1358  0.2292  0.4261  1.0925  1.2780       31483.5273
2030       37762.4737  0.3804  0.4056  1.2450  1.3220       30673.8157
2031       37139.2194  0.3006  0.4195  2.2797  1.3009       34619.5028
2032       26674.5711  0.4671  0.4928  0.8008  0.8858       30377.6995
2033       21327.1111  0.6566  0.5853  0.3229  0.6622       29176.2786
2034       29649.7718  0.3202  0.3942  0.6756  0.9468       30630.0542
2035       28838.9427  0.3657  0.3970  1.2200  0.8637       30823.6063
2036       45442.2273  0.3781  0.5683  3.6387  1.2139       36919.0661
2037       48828.7750  0.2969  0.5136  1.3850  1.3168       37269.2885
2038       49656.7688  0.5210  0.5265  0.6089  1.4332       36367.8480
2039       27394.9215  0.7737  0.4449  1.7112  0.9046       32253.0215
2040       34610.2056  0.3585  0.4372  2.6510  1.0359       34573.7358
2041       44826.9937  0.2774  0.4252  3.3716  1.0335       33602.8737
2042       51402.3170  0.3036  0.3809  0.1287  1.2275       31715.2796
2043       42223.8396  0.3348  0.3659  0.1275  1.0247       31135.4308
2044       39954.8149  0.3858  0.4101  0.2092  0.9532       32416.2138
2045       28747.4612  0.4412  0.3757  2.0070  0.7672       32186.3691
