Year Ft Rg C
2019  3  1  3115.7930
2020  3  1  1644.7806
2021  3  1  2605.2179
2022  3  1  3291.7821
2023  3  1  2811.2357
2024  3  1  5753.2180
2025  3  1  7497.5579
2026  3  1  8333.2144
2027  3  1  5791.9392
2028  3  1  6106.8035
2029  3  1  3501.2159
2030  3  1  1992.0947
2031  3  1  2307.1528
2032  3  1  1926.9335
2033  3  1  1604.6363
2034  3  1  2217.9217
2035  3  1  2045.6856
2036  3  1  1602.7048
2037  3  1  1087.7797
2038  3  1   711.6216
2039  3  1  1150.5155
2040  3  1  2300.2323
2041  3  1  2708.7053
2042  3  1  4395.3549
2043  3  1  4585.1548
2044  3  1  5294.3285
2045  3  1  3947.5864
