pseudo ref pts
2019       30154.8758  0.2483  0.2506  1.1538  1.0846       31092.5290
2020       23424.0836  0.2561  0.3235  0.9577  0.8780       30145.0700
2021       24676.7499  0.2174  0.3282  0.7286  0.8850       30948.3649
2022       28059.7440  0.3064  0.3342  3.8952  0.9163       30773.6563
2023       37207.7783  0.2573  0.4082  4.0793  1.0851       31698.7717
2024       69972.9086  0.2261  0.3677  5.5588  1.5219       33397.4045
2025       85143.0933  0.1498  0.2949  0.2966  1.6536       33151.1383
2026       81476.7209  0.2414  0.2988  0.2350  1.4043       33115.2177
2027       76025.9363  0.2435  0.2902  0.2714  1.3646       32096.6927
2028       45880.4692  0.3723  0.2885  1.0294  0.9401       30269.0747
2029       35466.3185  0.4542  0.2754  1.6184  0.8706       29419.7952
2030       28664.4113  0.2276  0.2640  1.2209  0.8821       29498.8983
2031       42816.9217  0.1637  0.2313  1.1545  1.4066       32447.0028
2032       40470.9455  0.1633  0.2350  0.8912  1.5227       35350.6815
2033       39652.8160  0.2084  0.3486  1.6174  1.8116       38912.8385
2034       35063.7760  0.2455  0.2329  2.1248  1.6728       35694.4923
2035       26710.9155  0.4002  0.3074  1.5093  1.3811       33898.7246
2036       15504.2668  0.3406  0.3865  0.7103  0.9872       32765.2145
2037       11680.7148  0.3830  0.3278  1.1854  0.7738       30590.1316
2038       13716.1669  0.1780  0.3586  2.2009  0.8450       29603.1099
2039       18022.5469  0.1470  0.3251  2.1749  0.9255       26867.5832
2040       31558.3750  0.2167  0.4137  0.9053  1.3909       29344.5422
2041       31577.7745  0.2009  0.4168  1.1642  1.2405       29159.6419
2042       40821.0736  0.3391  0.3726  1.0870  1.2532       29984.8198
2043       66620.0520  0.1958  0.3614  2.6352  1.8229       33267.3061
2044       63824.4066  0.3095  0.3355  0.4386  1.7104       32726.5406
2045       45844.7252  0.4742  0.4375  0.5648  1.2701       34354.6068
