Year Ft Rg C
2019  3  1  3536.7638
2020  3  1  2885.1048
2021  3  1  2975.1131
2022  3  1  1972.2492
2023  3  1  2160.3318
2024  3  1  1898.0261
2025  3  1  1915.0668
2026  3  1   379.5667
2027  3  1   816.3697
2028  3  1  1558.2448
2029  3  1  2326.6444
2030  3  1  4543.3712
2031  3  1  2936.4880
2032  3  1  2813.2460
2033  3  1  2971.3558
2034  3  1  3551.9242
2035  3  1  2541.8678
2036  3  1  3134.6718
2037  3  1  2820.8068
2038  3  1  2873.2158
2039  3  1  3021.5335
2040  3  1  2308.3740
2041  3  1   470.5364
2042  3  1   679.7094
2043  3  1  1228.7730
2044  3  1  4191.0454
2045  3  1  4572.6137
