pseudo ref pts
2019       27601.4463  0.3817  0.5487  1.1000  1.0455       18831.8288
2020       28712.9692  0.4024  0.4020  1.1940  1.0809       17354.1261
2021       46907.4561  0.2219  0.2803  1.6725  1.9160       18482.2643
2022       39179.6753  0.2533  0.2800  1.9215  1.9548       18878.3086
2023       28806.4401  0.3585  0.2104  1.8861  1.6759       16939.4280
2024       15351.0939  0.3419  0.2589  1.9321  1.2246       16451.7992
2025        7579.1521  0.5423  0.2120  1.4716  0.6823       12990.8228
2026        8932.8123  0.1035  0.2176  2.3064  0.7947       13664.7721
2027       17786.0970  0.0879  0.2772  2.9559  1.2519       15539.2121
2028       34983.7575  0.1203  0.2647  1.6482  1.9662       16346.8570
2029       32603.6450  0.1457  0.3141  0.5854  1.5395       16170.9518
2030       36828.3190  0.2589  0.3470  0.3827  1.4375       16789.5134
2031       22673.5468  0.3358  0.3712  0.3788  0.9031       15090.3273
2032       20620.1766  0.2618  0.2716  0.4281  0.8795       14418.6648
2033       17692.3952  0.3518  0.2464  0.4627  0.8298       13361.8867
2034       11304.8027  0.3435  0.2318  0.3224  0.6908       13547.1234
2035        7679.5738  0.8110  0.3150  0.9342  0.5722       12503.4878
2036        4344.6352  1.0284  0.3560  0.7990  0.4004       11892.6453
2037        5517.9476  0.8840  0.4203  1.9802  0.5728       14240.1562
2038        3438.7141  1.1388  0.4597  0.5588  0.4174       13329.5026
2039        5194.8798  0.9434  0.5106  1.0107  0.6066       14841.2244
2040        5254.0588  0.8395  0.5717  0.5667  0.6050       14758.7256
2041        7331.1864  0.1826  0.4106  4.2489  0.9056       16406.9967
2042       12961.3080  0.1272  0.3040  3.8255  0.9618       15591.6219
2043       28662.4179  0.0779  0.2662  5.0796  1.2744       15363.9791
2044       48756.8631  0.1410  0.2882  0.5179  1.6848       17207.1379
2045       48585.9060  0.1714  0.3538  0.1703  1.2951       16213.0560
