Year Ft Rg C
2019  3  1  3402.3676
2020  3  1  5031.8573
2021  3  1  4224.0920
2022  3  1  2429.8829
2023  3  1  2396.9086
2024  3  1  2516.8804
2025  3  1  2291.7155
2026  3  1  1599.9133
2027  3  1  1725.4915
2028  3  1   889.6324
2029  3  1  1814.2876
2030  3  1  1886.6584
2031  3  1  1617.1937
2032  3  1  2651.9120
2033  3  1  2096.0687
2034  3  1  2911.2839
2035  3  1  2774.1538
2036  3  1  3059.4788
2037  3  1  2781.9401
2038  3  1  2766.8029
2039  3  1  2854.3581
2040  3  1  3255.2708
2041  3  1  3362.8749
2042  3  1  3066.8693
2043  3  1  2795.8758
2044  3  1  3801.0404
2045  3  1  2597.1091
