pseudo ref pts
2019       25586.5993  0.4029  0.4923  0.8362  0.8372       16378.1008
2020       16043.3311  0.7022  0.5227  0.5688  0.5200       14722.0235
2021       14754.2744  0.6004  0.4147  0.6683  0.5279       14162.4252
2022       11696.9036  0.3984  0.4375  0.6126  0.4919       13966.5302
2023       15270.3070  0.3392  0.4149  0.7500  0.6732       15233.7466
2024       13633.7030  0.3542  0.3701  0.7378  0.6592       14596.8919
2025       15679.0598  0.3500  0.3233  0.6182  0.7678       14716.9239
2026       13761.8471  0.2758  0.2961  1.7833  0.7621       14780.5249
2027       12087.4932  0.2943  0.2464  1.5402  0.6602       14366.4654
2028       14810.9699  0.1105  0.2078  2.2436  0.7953       13925.5414
2029       20836.4254  0.0891  0.2092  0.8090  1.0583       14573.7414
2030       15380.8963  0.1549  0.2516  0.5127  0.7442       14464.5214
2031       19381.0299  0.1338  0.2839  0.6848  0.8352       15766.9830
2032       16098.9455  0.3308  0.5550  0.4266  0.6385       16185.9966
2033       16061.8243  0.3508  0.5296  0.6874  0.6154       15258.3104
2034       18355.5901  0.3019  0.3352  0.6514  0.6884       15210.1471
2035       13197.4501  0.4400  0.4074  0.4490  0.5290       14500.3972
2036       13851.5511  0.4030  0.4175  0.2040  0.6460       13553.2483
2037       11093.4292  0.4708  0.3651  0.2412  0.5738       13277.0632
2038        7749.8839  0.5227  0.3181  0.2944  0.4828       12404.7701
2039        6074.1890  0.6207  0.3046  0.9993  0.4927       12520.7048
2040        6469.1075  0.5464  0.3400  0.9231  0.5989       13830.4364
2041        9423.3168  0.3916  0.3402  1.8462  0.8993       16392.6831
2042        7050.2298  0.5325  0.3418  0.3453  0.7595       15552.7733
2043        8203.6954  0.4989  0.2926  1.5377  1.0374       15787.8784
2044       10714.9332  0.5772  0.3723  1.4756  1.2782       16439.0370
2045       12417.8022  0.5018  0.4235  3.4791  1.2980       16377.6302
