Year Ft Rg C
2019  3  1  3082.9103
2020  3  1  1763.4231
2021  3  1  2383.4310
2022  3  1  2906.6563
2023  3  1  2667.8785
2024  3  1  2284.9684
2025  3  1  1931.2655
2026  3  1  1205.0544
2027  3  1  1584.3267
2028  3  1  2299.6320
2029  3  1  1817.4470
2030  3  1  2011.8192
2031  3  1  2391.8965
2032  3  1  2716.7304
2033  3  1  2963.3976
2034  3  1  3131.0721
2035  3  1  2871.0112
2036  3  1  2709.5307
2037  3  1  2846.5819
2038  3  1  2459.0266
2039  3  1  2870.2752
2040  3  1  2407.8701
2041  3  1   656.1382
2042  3  1  1378.7867
2043  3  1  1886.8496
2044  3  1  2164.5050
2045  3  1  2770.5012
