pseudo ref pts
2019       32446.4424  0.3309  0.3356  1.3332  1.3329       15767.0824
2020       22412.8943  0.3433  0.2945  1.0136  0.9062       14457.5540
2021       28665.8092  0.2790  0.2504  1.1084  1.1712       15008.1612
2022       21570.1389  0.3177  0.3146  0.8457  1.0207       15842.1310
2023       20565.6705  0.4125  0.3601  1.3714  1.1576       16375.2273
2024       13581.9545  0.5773  0.3578  1.2486  0.8754       16688.3802
2025       14772.5993  0.6810  0.3546  4.8645  1.1153       16782.0079
2026       10973.8099  0.4850  0.4159  2.4464  0.8613       14514.8696
2027       12025.2410  0.5561  0.6229  1.9043  0.7740       14863.3140
2028       11796.5256  0.4777  0.5289  0.1890  0.6791       14445.4284
2029       12946.6884  0.3212  0.3812  0.4279  0.7252       13836.4668
2030       16673.7804  0.2824  0.3698  0.8310  0.7608       15128.5786
2031       22588.5518  0.2387  0.3705  3.5175  0.8851       16356.2649
2032       42004.0674  0.1728  0.3706  1.5301  1.6690       18489.3266
2033       30648.7741  0.1773  0.2872  0.2478  1.2972       16538.4134
2034       24201.5897  0.3881  0.3915  0.2543  0.9722       15391.1513
2035       19665.0021  0.6274  0.5062  0.4613  0.8565       16579.6870
2036       21140.9360  0.6905  0.4749  4.1928  1.1209       18863.0577
2037        7073.1140  2.2370  0.5411  1.2910  0.4717       15193.8774
2038        5985.3465  1.2930  0.6140  1.6883  0.5479       14396.1593
2039        7446.0673  0.9841  0.5582  0.8306  0.7140       15609.0772
2040       10763.9909  0.6638  0.5529  1.6992  1.0688       17123.3325
2041       16680.2967  0.2249  0.4579  2.8349  1.6243       16775.4118
2042       19099.4820  0.4299  0.3952  2.9204  1.2864       16145.1683
2043       26284.4060  0.3829  0.4654  2.1431  1.3349       16410.0235
2044       23402.3111  0.5138  0.5371  0.4152  1.2809       15048.0262
2045       24674.6184  0.5263  0.5246  0.5932  1.1286       15886.6184
