Year Ft Rg C
2019  3  1  3304.8524
2020  3  1  2538.4195
2021  3  1  2979.0865
2022  3  1  3046.6246
2023  3  1  3363.9296
2024  3  1  2789.2309
2025  3  1  3118.0887
2026  3  1  2614.2851
2027  3  1  4090.4438
2028  3  1  5822.0414
2029  3  1  4304.3798
2030  3  1  3019.4197
2031  3  1  3193.9579
2032  3  1  4094.7338
2033  3  1  3974.1555
2034  3  1  3729.2865
2035  3  1  3125.3706
2036  3  1  2198.1433
2037  3  1  2659.4116
2038  3  1  3146.9914
2039  3  1  2338.5460
2040  3  1  3590.8544
2041  3  1  2732.5381
2042  3  1  3278.6726
2043  3  1  3496.5453
2044  3  1  3397.9005
2045  3  1  3016.9360
