pseudo ref pts
2019       18443.3647  0.5573  0.5429  0.6653  0.6340       29222.0176
2020       28255.3282  0.2852  0.4941  0.9421  0.9503       32930.8910
2021       32798.0513  0.2596  0.4771  0.5590  1.1328       31711.8093
2022       44185.7072  0.3363  0.4513  0.6835  1.5799       33055.4838
2023       38531.0210  0.4006  0.4114  0.9611  1.4967       31072.2064
2024       21083.0574  1.0844  0.5949  2.9279  0.9110       28785.1843
2025       39456.4489  0.5549  0.3792  4.4245  1.5695       30323.3370
2026       30896.2043  0.4829  0.4140  2.8062  1.1015       27664.2925
2027       48211.8924  0.4079  0.3812  0.7343  1.5180       28306.4618
2028       46353.9078  0.5170  0.5013  0.7593  1.4072       30196.7599
2029       16492.9788  0.9931  0.5944  0.1260  0.5342       25183.9450
2030       28567.1206  0.3486  0.5387  0.7842  0.8905       29490.3599
2031       41515.5880  0.1801  0.3131  0.9352  1.2373       29653.5006
2032       50431.4803  0.3268  0.4228  2.7648  1.4198       33928.6613
2033       42932.9947  0.3226  0.4093  1.2559  1.2578       33406.7345
2034       54689.7070  0.2828  0.3011  1.8109  1.6246       34793.2518
2035       43889.3788  0.2407  0.2219  1.8402  1.2785       33374.4217
2036       44300.9191  0.1469  0.2512  1.3199  1.3371       33492.0543
2037       45002.7133  0.1427  0.2569  1.2892  1.3291       33258.0868
2038       77092.0483  0.1211  0.2473  1.1741  2.2323       34763.5801
2039       67688.2058  0.1249  0.2428  2.0195  1.9180       31261.3902
2040       98976.9113  0.1260  0.2185  1.5466  2.5479       35981.1328
2041       76333.6733  0.1457  0.2567  2.5322  1.9527       37095.7661
2042       89978.2464  0.1675  0.2580  1.2236  2.0900       39787.6293
2043       84832.6300  0.1975  0.2823  1.8595  1.9319       39684.5720
2044       53621.3184  0.3135  0.2419  0.5735  1.4217       34420.4623
2045       58630.2498  0.2915  0.2290  2.6010  1.9221       38454.9310
