Year Ft Rg C
2019  3  1  3718.6442
2020  3  1  2511.0676
2021  3  1  3170.0360
2022  3  1  3532.3261
2023  3  1  4260.4947
2024  3  1  6544.4110
2025  3  1  9270.5469
2026  3  1 12737.8635
2027  3  1  9865.9136
2028  3  1 16488.2398
2029  3  1 21588.3684
2030  3  1 34809.1728
2031  3  1 25376.9735
2032  3  1 17667.3027
2033  3  1 14014.4762
2034  3  1  7891.9209
2035  3  1  5804.6141
2036  3  1  4499.6258
2037  3  1  5571.8569
2038  3  1  7890.3623
2039  3  1  6248.4179
2040  3  1  5475.3290
2041  3  1  4609.4278
2042  3  1  3313.5382
2043  3  1  3568.8933
2044  3  1  4705.7659
2045  3  1  6175.5489
