pseudo ref pts
2019       31272.5854  0.4477  0.5323  1.1667  1.0294       96587.7763
2020       31754.8485  0.3085  0.4170  1.0129  1.0726       90474.4139
2021       34665.8770  0.2794  0.4552  0.7075  0.9006       97302.7288
2022       53367.3077  0.1920  0.3741  1.1877  1.1517       98085.8527
2023       65671.5377  0.2007  0.4008  1.3967  1.1422       95809.6539
2024      104945.0144  0.2547  0.4034  1.9048  1.5139       91747.8736
2025      113175.6538  0.2247  0.4329  1.5493  1.4389       97208.3916
2026      120929.7138  0.4978  0.5316  1.5371  1.3605       99668.4731
2027      152433.9921  0.4330  0.5241  3.1686  1.4428      104881.9539
2028      219533.7542  0.4364  0.4919  2.7758  1.5859      113995.2667
2029      119733.4768  0.5845  0.4858  0.6734  0.7597       97725.9408
2030      122603.2229  0.7079  0.5365  0.2141  0.7976       90245.2303
2031      135060.1024  0.6546  0.5306  0.2912  0.8767       95640.8816
2032      154605.5642  0.4580  0.4057  0.7495  1.0596      106730.8421
2033      113666.7118  0.3814  0.3214  0.7568  0.9875      117918.7715
2034       70643.2469  0.3451  0.3466  0.8850  0.8405      107319.7953
2035       53423.7757  0.5473  0.3705  0.7702  0.7220       95328.2099
2036       33672.0177  0.3280  0.3577  0.7427  0.5334       85131.6380
2037       32160.5351  0.5474  0.6156  0.5802  0.5554       88261.4083
2038       36689.7802  0.4325  0.5751  0.3720  0.6878       86730.4291
2039       49963.9141  0.2724  0.4219  0.9695  1.0073       92402.5273
2040       41251.6644  0.3314  0.4090  0.6470  0.7645       88971.1401
2041       60032.9685  0.1609  0.2062  2.4996  1.0037       89596.9374
2042       59435.0661  0.1158  0.1784  1.2026  0.9489       79496.4274
2043       66561.1083  0.1048  0.1899  1.3037  0.9322       75926.8739
2044       76901.9789  0.0897  0.1480  0.5060  1.0822       77673.7665
2045       73268.7504  0.1651  0.2804  0.9172  0.9599       83837.7214
