Year Ft Rg C
2019  3  1  3654.8713
2020  3  1  2888.2098
2021  3  1  2656.6144
2022  3  1  3354.8674
2023  3  1  3716.0668
2024  3  1  2492.3592
2025  3  1  2896.9560
2026  3  1  2695.1041
2027  3  1  2315.3914
2028  3  1  2462.4784
2029  3  1  2576.8843
2030  3  1  2592.7592
2031  3  1  2246.0219
2032  3  1  2546.3149
2033  3  1  1062.7078
2034  3  1  1326.2863
2035  3  1  1345.7047
2036  3  1  1192.3759
2037  3  1  1287.5288
2038  3  1  1874.5537
2039  3  1  2240.6826
2040  3  1  2218.7317
2041  3  1  2482.2101
2042  3  1  2439.5569
2043  3  1  1985.1367
2044  3  1  1812.3852
2045  3  1  1703.5432
