pseudo ref pts
2019       18965.6538  0.5910  0.4910  0.6528  0.5965       13837.6209
2020       21065.7126  0.4316  0.4545  0.7396  0.6997       13943.7829
2021       21457.1365  0.4250  0.4603  1.2679  0.7734       13152.6352
2022       16587.3863  0.7431  0.5024  0.7394  0.6017       12148.9061
2023       15174.8109  0.7071  0.5703  1.0141  0.6023       13624.9989
2024       14523.3835  0.6538  0.5786  0.4913  0.6496       13648.0335
2025       20588.7261  0.4521  0.5173  0.8900  1.0045       14931.5441
2026       17416.8280  0.4259  0.3496  0.3021  0.9219       14384.2136
2027       17169.4772  0.4853  0.3790  0.2498  1.0540       16094.5335
2028       15374.5688  0.3663  0.2487  1.0869  1.1848       16122.6180
2029       12346.5063  0.6220  0.3103  1.8320  1.0746       16758.5621
2030       11510.7591  0.4142  0.3514  3.7377  1.1266       16794.5443
2031       11026.0318  0.5445  0.4567  1.0131  1.1585       16490.7138
2032        7387.3080  0.7871  0.3842  0.8099  0.7527       14218.1706
2033        8712.8816  0.3796  0.4208  1.1636  0.8294       15492.2261
2034       10991.8322  0.2062  0.3096  1.0132  0.9028       15116.9843
2035       14126.4222  0.2032  0.3273  0.9069  0.9775       14920.5763
2036       17651.2126  0.1891  0.3274  0.6385  1.1384       15319.6088
2037       23201.2571  0.1342  0.2625  1.9900  1.4312       15651.0393
2038       20170.2686  0.2183  0.2561  1.8198  1.0341       13962.6615
2039       25695.9203  0.1542  0.2257  2.1514  1.1142       13915.5643
2040       34202.0633  0.1615  0.3105  0.5502  1.3576       15478.4296
2041       25937.1358  0.1722  0.3304  0.2970  0.9887       15113.2100
2042       27330.0252  0.1672  0.2485  0.1477  1.0574       15158.7303
2043       23056.1547  0.2099  0.2522  1.3936  0.8904       14821.0562
2044       25076.1153  0.1536  0.2119  1.8674  0.9479       15024.9264
2045       22355.1991  0.1826  0.2575  4.2611  0.8436       14347.5851
