Year Ft Rg C
2019  3  1  3033.0648
2020  3  1  2175.2698
2021  3  1  2176.2257
2022  3  1  2810.8017
2023  3  1  4294.9839
2024  3  1  7742.8856
2025  3  1  9011.0003
2026  3  1 12121.4734
2027  3  1 12016.4770
2028  3  1  7476.3359
2029  3  1  6526.1302
2030  3  1  2693.1768
2031  3  1  3923.1218
2032  3  1 15170.8611
2033  3  1 16714.1092
2034  3  1 16993.3351
2035  3  1 12397.8052
2036  3  1  8298.3279
2037  3  1  8110.4879
2038  3  1  6790.9944
2039  3  1  7742.4631
2040  3  1  9426.8306
2041  3  1 10210.5063
2042  3  1  6725.4772
2043  3  1  6957.6160
2044  3  1  7895.6541
2045  3  1  8924.5885
