pseudo ref pts
2019       33112.7668  0.2965  0.3130  1.2531  1.3862       94483.7997
2020       37505.5952  0.1627  0.3566  1.2097  1.5892       96394.1669
2021       46377.1235  0.1293  0.3160  1.4972  1.7154       89233.0009
2022       68316.4016  0.1472  0.3619  1.9277  1.8274       91444.8496
2023       64028.5327  0.1802  0.3965  1.2107  1.2403       84787.0451
2024       70606.2539  0.2646  0.3712  0.5460  1.0272       78859.8606
2025       72925.9473  0.2509  0.3615  0.1354  0.8981       76696.6028
2026       92311.2691  0.2283  0.3123  0.1698  1.0819       81369.5140
2027       78443.2976  0.3112  0.4356  0.3040  0.9367       92011.2540
2028       96220.3418  0.2517  0.3308  4.1496  1.2876       99499.7265
2029       43131.2479  0.5134  0.3114  7.0052  0.6036       81335.9134
2030       59660.5121  0.1833  0.4257  6.3411  0.7563       82363.7740
2031      104106.3102  0.1177  0.3858  2.0869  0.9820       93753.4391
2032      125709.4179  0.2335  0.2597  0.1911  1.0876       79657.0765
2033      124478.3412  0.2358  0.2307  0.1205  0.9541       74870.8262
2034      107111.2998  0.3485  0.3988  0.2295  0.8497       79453.6170
2035      102272.6745  0.3389  0.3989  0.8155  0.8532       84012.8318
2036      125158.3193  0.3331  0.3752  2.7576  1.1644       88311.3641
2037       83014.6231  0.5223  0.4821  2.1851  0.8941       96490.6574
2038       69600.5672  0.4661  0.4247  2.0785  0.8432       91451.5123
2039       56390.4204  0.5932  0.4813  0.8397  0.7166       87646.6129
2040       53614.1368  0.5195  0.5436  0.5116  0.7073       85061.2532
2041       38049.7503  0.5708  0.4396  0.3985  0.5448       74002.8898
2042       37341.6523  0.3716  0.4448  0.6866  0.5497       79535.1415
2043       62051.8799  0.2693  0.4211  1.9602  0.8407       88027.2979
2044       76160.4225  0.3521  0.5333  2.3421  0.9212       94212.2622
2045       85766.3126  0.2756  0.4283  1.6257  0.9642       90585.0234
