Year Ft Rg C
2019  3  1  3394.0445
2020  3  1  1876.1308
2021  3  1  2301.9155
2022  3  1  3195.4519
2023  3  1  4724.1495
2024  3  1  6805.7212
2025  3  1  8800.2339
2026  3  1 16535.5975
2027  3  1 14174.5736
2028  3  1 18966.0158
2029  3  1 14405.9380
2030  3  1  4714.5594
2031  3  1  5758.8570
2032  3  1  4849.3567
2033  3  1  4454.3069
2034  3  1  6347.0782
2035  3  1  9476.3325
2036  3  1 16022.6346
2037  3  1 20066.0044
2038  3  1 25479.3699
2039  3  1 20733.2671
2040  3  1 11496.0424
2041  3  1 10660.2447
2042  3  1  7125.7435
2043  3  1  6123.2586
2044  3  1  7245.4136
2045  3  1  7696.2907
