pseudo ref pts
2019       26821.4288  0.3318  0.3632  1.1811  1.0704      101193.0860
2020       27496.4596  0.2002  0.4137  0.9712  1.0782       96134.0895
2021       41058.7965  0.1393  0.4252  0.8343  1.3316      104470.9902
2022       46920.3094  0.2469  0.5373  0.8807  1.2289      105132.4514
2023       43002.1247  0.3550  0.5942  1.0155  0.9765       95269.7024
2024       42450.0363  0.5830  0.7105  1.9984  0.8089       88282.1463
2025       97874.5970  0.2926  0.5699  2.7012  1.3579      102995.2186
2026      181422.5678  0.2842  0.4244  1.9946  2.0085      116109.7539
2027      106183.2906  0.5140  0.5192  0.2990  1.1084       99242.6975
2028      100444.5208  0.6540  0.4906  0.4034  1.0241      105612.1877
2029       55249.0992  0.7709  0.3277  0.3712  0.6522       90172.3181
2030       53458.3479  0.2377  0.3723  1.7717  0.7643       99437.3152
2031       67148.2496  0.1705  0.2696  1.6414  1.0307       98532.5169
2032      102633.4526  0.1250  0.2479  4.5240  1.7163      101408.1165
2033      114134.1949  0.1036  0.1912  3.2216  1.7774       91757.4248
2034      120172.9965  0.1282  0.2122  5.1720  1.5796       91943.2001
2035      165905.1639  0.1388  0.2659  1.6624  1.7312       89790.3155
2036      166534.1031  0.2604  0.3610  1.0374  1.3933       86102.3752
2037      209848.7236  0.1956  0.3126  0.2667  1.5200       95818.9067
2038      224618.0908  0.2940  0.3400  0.6568  1.4769      106357.2825
2039      175080.7113  0.3435  0.3085  1.1077  1.2558      103197.3999
2040      152410.5420  0.2601  0.2947  2.8999  1.2777      103709.9714
2041      102610.6321  0.2987  0.2476  0.9843  0.9529       91845.1637
2042       78380.7498  0.1762  0.2522  0.5823  0.8415       91447.1403
2043       69539.0840  0.2128  0.2759  0.5679  0.8125       86322.0877
2044       55651.8183  0.2665  0.3907  0.6976  0.6565       84984.8320
2045       77096.0504  0.2028  0.3602  0.6927  0.9059       90113.1351
