Year Ft Rg C
2019  3  1  4536.2271
2020  3  1  1845.4646
2021  3  1  3061.4590
2022  3  1  6115.0192
2023  3  1  5718.9439
2024  3  1  6870.1381
2025  3  1  6184.0852
2026  3  1  6600.6805
2027  3  1  9318.4944
2028  3  1 11005.5347
2029  3  1 12015.2194
2030  3  1 12770.4200
2031  3  1  9672.1243
2032  3  1  4528.7929
2033  3  1  6324.4630
2034  3  1  8889.2155
2035  3  1 11564.3592
2036  3  1 19331.9051
2037  3  1 15949.7601
2038  3  1 12602.4945
2039  3  1 17656.8670
2040  3  1 31574.5720
2041  3  1 30408.0020
2042  3  1 23358.4272
2043  3  1 19577.9841
2044  3  1 14932.1800
2045  3  1 13269.9973
