pseudo ref pts
2019       31461.3014  0.4647  0.4683  1.3092  1.2013       91441.9209
2020       38247.3224  0.3295  0.5491  1.3620  1.4419      101834.4228
2021       63068.0715  0.2513  0.6350  1.5690  1.9052      113035.6929
2022       63306.6777  0.6084  0.6507  1.0121  1.5631      105862.9148
2023       53385.3903  0.4928  0.4304  0.6590  1.2774       92354.5118
2024       45522.2619  0.4826  0.5472  1.3262  1.0555       92274.1054
2025       65584.2203  0.4531  0.5685  2.1721  1.1516      100861.9500
2026       61145.2765  0.5055  0.4705  2.7236  0.8980       91165.0410
2027       70184.8666  0.4112  0.4510  0.9910  0.9919       94229.6476
2028       51230.8053  0.5833  0.4894  0.5493  0.6691       78708.1758
2029       82888.7308  0.2962  0.3460  0.4248  0.9835       87718.7172
2030       78783.1400  0.2924  0.3349  0.3854  0.9299       94617.2021
2031       77918.3959  0.3049  0.3502  1.5820  0.9774      100290.7661
2032       63409.1055  0.2951  0.3102  3.5730  0.7329       88054.3308
2033      116285.9027  0.2159  0.3799  7.7871  1.0956       99703.0535
2034      188998.2942  0.1835  0.3116  1.6760  1.5441       98467.0759
2035      217533.8886  0.1539  0.3127  0.2854  1.6577      104122.9276
2036      281746.2711  0.2991  0.3801  0.3276  1.9626      105591.5705
2037      207953.1876  0.3863  0.3705  3.6179  1.6032      108085.8932
2038      157237.8672  0.4466  0.3204  9.2580  1.1380       93905.1455
2039      265282.5011  0.2566  0.3452  9.4150  1.6214       95102.3553
2040      336593.9123  0.2247  0.3472  0.3397  1.9384      103822.5536
2041      239622.2998  0.3070  0.3827  0.2797  1.3036      103055.2157
2042      178305.3378  0.4583  0.3839  0.2150  0.8862       91448.7434
2043      166216.6606  0.4439  0.2739  1.0598  0.8811       83176.3075
2044       84914.8673  0.3411  0.2929  0.3721  0.6274       79368.7945
2045       59758.5119  0.3658  0.2447  0.3769  0.5235       79585.3935
