Year Ft Rg C
2019  3  1  3772.5061
2020  3  1  2323.1368
2021  3  1  2234.1977
2022  3  1  2574.1400
2023  3  1  2568.2424
2024  3  1  3645.6900
2025  3  1  3023.9201
2026  3  1  4456.3533
2027  3  1  3230.6642
2028  3  1  2016.5843
2029  3  1  2148.4418
2030  3  1  2726.2502
2031  3  1  2507.3450
2032  3  1  4657.3577
2033  3  1  3375.2168
2034  3  1  2945.1300
2035  3  1  2500.9932
2036  3  1  1397.0005
2037  3  1  1180.8192
2038  3  1  1672.1946
2039  3  1  1910.9792
2040  3  1  2448.2013
2041  3  1  3150.6833
2042  3  1  2933.8302
2043  3  1  3337.0209
2044  3  1  3529.9072
2045  3  1  4134.5679
