pseudo ref pts
2019       34901.2076  0.1892  0.2521  0.9917  1.2551       31651.2755
2020       31265.1594  0.1969  0.3306  0.9977  1.1224       33981.4236
2021       25620.1189  0.2244  0.3164  0.8112  0.8863       30064.5123
2022       32369.1231  0.1889  0.3504  1.2591  1.0932       32537.3383
2023       26797.0798  0.2004  0.2917  1.1461  0.8810       29479.5545
2024       28970.0651  0.2797  0.3822  0.9771  0.8543       28222.3952
2025       38009.5023  0.2554  0.5020  0.5295  1.1553       31460.1306
2026       33603.3052  0.4067  0.3445  0.6244  0.9841       29510.8330
2027       17136.8806  0.5220  0.2435  0.4998  0.5436       25137.3053
2028       15409.2974  0.2178  0.3369  1.7653  0.5102       27753.0319
2029       32147.7828  0.1307  0.2656  1.5520  0.9319       29899.1554
2030       30134.7782  0.2982  0.4136  1.4135  0.8365       27926.7760
2031       40828.2347  0.2163  0.4227  0.3960  1.1256       32174.1544
2032       43811.7888  0.3584  0.3982  0.5293  1.1043       30647.1907
2033       33694.5993  0.4526  0.4726  0.2723  0.9348       30804.2577
2034       29065.2062  0.5105  0.4862  0.8209  0.9163       30970.1740
2035       26157.3390  0.4449  0.3443  1.0079  0.9457       30176.7616
2036       20966.3560  0.2558  0.3003  1.5613  0.9036       29775.7499
2037       30960.0314  0.1764  0.2784  1.7454  1.4206       31894.7996
2038       27423.3296  0.1713  0.2124  1.5483  1.2382       29624.2436
2039       34907.0291  0.1534  0.2409  2.5258  1.5323       33878.0028
2040       31499.0793  0.1802  0.2666  1.6365  1.2166       31339.1410
2041       26623.8328  0.2073  0.2705  0.7312  0.8904       28932.9543
2042       18676.3399  0.2666  0.3877  0.1840  0.6156       27903.3319
2043       17718.1824  0.3284  0.4586  0.2349  0.5411       28085.1099
2044       17467.4814  0.3114  0.3869  0.3087  0.5355       27278.4625
2045       21823.4839  0.2565  0.3663  1.8047  0.6463       30949.9326
