Year Ft Rg C
2019  3  1  3397.0990
2020  3  1  2286.3379
2021  3  1  2829.4996
2022  3  1  2232.7089
2023  3  1  1427.9844
2024  3  1  2331.7096
2025  3  1  2481.8214
2026  3  1  1879.2890
2027  3  1  1522.7927
2028  3  1  1621.1753
2029  3  1  2149.3862
2030  3  1  1642.6379
2031  3  1  1443.5964
2032  3  1   489.6994
2033  3  1  1384.7047
2034  3  1  1177.8311
2035  3  1  1172.9023
2036  3  1  1142.3671
2037  3  1  1332.6190
2038  3  1   802.7403
2039  3  1   930.4570
2040  3  1   774.4869
2041  3  1   788.9388
2042  3  1   848.3275
2043  3  1   746.6587
2044  3  1   725.7343
2045  3  1   810.2995
