pseudo ref pts
2019       24300.0455  0.3145  0.3285  1.0542  0.9481       15401.1380
2020       19933.6827  0.2461  0.3527  0.8158  0.7770       15687.4566
2021       24405.5999  0.2335  0.3184  1.1746  0.9000       15668.2018
2022       25680.5831  0.2198  0.3011  2.1946  1.0925       16360.1419
2023       33014.8559  0.2182  0.3399  2.7469  1.4279       17339.2840
2024       31093.5577  0.3630  0.4413  2.8959  1.3587       17467.2512
2025       50655.9078  0.2396  0.3654  1.6162  2.2906       19051.8126
2026       42256.6777  0.5576  0.5183  2.4068  1.9221       18975.2388
2027       29158.9954  0.8875  0.5953  0.8850  1.5001       18207.9082
2028       13931.3187  1.2948  0.5840  0.7945  0.8634       15488.8419
2029        8810.6551  2.2483  0.5042  0.1586  0.6813       14148.5799
2030        4212.9213  1.3725  0.5950  0.9765  0.5606       14925.3292
2031        6842.1158  0.9022  0.5354  1.3173  0.8396       15738.6446
2032       11740.1794  0.1943  0.5273  4.8485  1.2509       16538.5431
2033       16909.0712  0.2047  0.5096  0.6313  1.6451       16407.0767
2034       12263.5712  0.4382  0.4360  0.4526  0.9785       15619.2136
2035       18606.2963  0.4226  0.4583  0.2465  1.3043       16539.0825
2036       13508.1764  0.6518  0.4655  1.8850  0.9438       15791.5111
2037       10502.8134  1.0838  0.5580  1.3255  0.6955       14773.0669
2038       13497.2897  0.3404  0.4661  3.3331  0.8859       14289.1067
2039       19471.0608  0.2086  0.4437  0.4129  1.3060       15930.3502
2040       18713.9810  0.3917  0.4715  0.5267  1.2709       17057.5013
2041       20864.4222  0.4933  0.4914  0.5208  1.4846       16943.4478
2042       11583.9740  0.9911  0.5826  0.8669  0.9197       16575.3679
2043        6879.3334  1.6781  0.4150  0.8119  0.6906       14313.1144
2044        4635.3175  0.6904  0.4780  1.6824  0.6794       14318.2473
2045        9971.5188  0.2231  0.2830  2.4621  1.4152       15116.3864
