Year Ft Rg C
2019  3  1  3354.3014
2020  3  1  1764.8874
2021  3  1  2279.1364
2022  3  1  2026.5910
2023  3  1  3210.3850
2024  3  1 11864.9355
2025  3  1 12040.5224
2026  3  1 11081.5259
2027  3  1 13190.8718
2028  3  1 18695.0519
2029  3  1 15618.9498
2030  3  1 22795.5876
2031  3  1 13074.1906
2032  3  1  7011.0718
2033  3  1  5622.0612
2034  3  1   701.7373
2035  3  1  1302.7643
2036  3  1  1106.5923
2037  3  1  3500.1883
2038  3  1 11060.4270
2039  3  1 12836.5573
2040  3  1 19214.6766
2041  3  1 17542.9993
2042  3  1 14336.8743
2043  3  1 10898.5668
2044  3  1 17382.3531
2045  3  1 17136.3328
