pseudo ref pts
2019       17657.5215  0.3777  0.2926  0.6900  0.6659       79480.2255
2020       21900.3147  0.1926  0.3776  0.7180  0.8264       78973.5523
2021       28100.7526  0.1506  0.3546  1.6036  0.8865       80583.4690
2022       79648.9082  0.0883  0.2573  1.7277  1.5567       84602.0326
2023       78832.0407  0.1319  0.3934  1.5824  1.1766       83661.9232
2024       99347.0517  0.3085  0.3883  0.5360  1.1719       82657.7885
2025      149991.7513  0.1864  0.2636  1.0384  1.4209       84733.3218
2026      219957.4539  0.1414  0.2339  1.2177  1.7584       91681.0953
2027      215085.1347  0.1607  0.2476  1.2923  1.5595       87656.1849
2028      246886.1332  0.2222  0.2784  1.4235  1.7408       99477.8020
2029      238230.8980  0.2729  0.3850  1.0757  1.6081      112348.9228
2030      205485.4218  0.5294  0.3548  0.6298  1.5509      106831.2877
2031      103194.2502  1.3055  0.4890  0.4941  1.0897      106563.7086
2032       42190.7958  2.0439  0.5653  0.5775  0.7358      105007.9214
2033       18906.1154     NaN  0.5366  0.9801  0.4887       94898.0872
2034        8923.3556  0.3803  0.3548  2.1035  0.4656       86747.4390
2035       21532.2279  0.2095  0.3402  4.3184  1.1132       82398.1611
2036       56371.9913  0.0741  0.2408  4.3731  1.7091       88123.7193
2037       68426.7962  0.0845  0.2438  1.9710  1.5638       82134.6069
2038       91008.7585  0.1623  0.2692  0.5388  1.2396       81444.9354
2039      131835.6491  0.1522  0.3312  0.5997  1.2026       87211.6375
2040      122311.5326  0.3442  0.4272  0.2545  0.8432       87959.2934
2041      137550.1608  0.3181  0.4203  0.3979  0.8962       86399.5852
2042      141722.7242  0.3216  0.3004  0.9358  0.9182       83065.1152
2043      135521.5894  0.3009  0.3122  2.1354  1.0335       92831.3851
2044      110396.5399  0.2736  0.2841  1.9187  0.8223       86610.4548
2045      101296.2466  0.3176  0.3236  0.5636  0.8196       86158.4952
