Year Ft Rg C
2019  3  1  3304.8524
2020  3  1  2655.0693
2021  3  1  2513.7696
2022  3  1  2490.9022
2023  3  1  3287.2304
2024  3  1  2831.3315
2025  3  1   843.5500
2026  3  1   819.5504
2027  3  1  1254.9141
2028  3  1  2184.2078
2029  3  1  1980.3808
2030  3  1  1680.0165
2031  3  1  1985.8769
2032  3  1  1208.6477
2033  3  1  1442.3273
2034  3  1  1530.9666
2035  3  1  1304.3640
2036  3  1  1053.9474
2037  3  1  1025.4798
2038  3  1  1822.0603
2039  3  1  1410.5679
2040  3  1  1375.5233
2041  3  1  1243.2356
2042  3  1  1648.6929
2043  3  1  1650.5526
2044  3  1  1523.8391
2045  3  1  1693.8077
