pseudo ref pts
2019       18443.3647  0.5580  0.5429  0.6653  0.6340       14610.6068
2020       27341.3838  0.3448  0.4941  0.9421  0.9196       16505.3739
2021       28362.6488  0.3132  0.4771  0.5589  1.0535       15854.0221
2022       34254.4152  0.4020  0.4513  0.6834  1.4522       16497.3215
2023       26474.8167  0.6185  0.4114  0.9600  1.3359       15529.1692
2024       11359.6521  1.9023  0.5995  2.9215  0.7804       14383.9455
2025       17421.6568  0.8824  0.3763  4.4146  1.2993       15163.9309
2026       13201.2739  0.4565  0.4108  2.8005  0.9532       13822.9255
2027       21973.2227  0.3359  0.3782  0.7335  1.4472       14154.9685
2028       22569.4994  0.4432  0.5013  0.7589  1.4542       15081.8891
2029        8402.1965  0.8875  0.5944  0.1262  0.5670       12583.8012
2030       15003.3827  0.3648  0.5387  0.7852  0.9351       14734.9935
2031       21477.8906  0.1935  0.3155  0.9361  1.2608       14819.0940
2032       25555.0762  0.2699  0.4195  2.7648  1.4148       16960.0940
2033       22424.7022  0.2855  0.4062  1.2559  1.2542       16726.9330
2034       28833.6319  0.2554  0.3011  1.8109  1.6334       17377.2666
2035       23211.5672  0.2213  0.2219  1.8403  1.2966       16659.2180
2036       23348.8587  0.1443  0.2493  1.3199  1.3410       16822.2775
2037       23388.5074  0.1323  0.2569  1.2892  1.3224       16559.6195
2038       39954.3961  0.1256  0.2473  1.1742  2.2172       17420.7016
2039       34446.9377  0.1350  0.2428  2.0199  1.8959       15656.4032
2040       49428.9478  0.1172  0.2185  1.5469  2.5144       17946.4911
2041       38560.4139  0.1389  0.2587  2.5326  1.9356       18461.3688
2042       45664.6310  0.1687  0.2580  1.2237  2.0875       19883.1919
2043       42803.1587  0.1982  0.2823  1.8595  1.9390       19811.7775
2044       26952.7638  0.3138  0.2419  0.5734  1.4196       17163.8116
2045       29422.6847  0.3163  0.2290  2.5990  1.9146       19198.1122
