Year Ft Rg C
2019  3  1  3818.0321
2020  3  1  2379.6517
2021  3  1  2174.3170
2022  3  1  3528.7759
2023  3  1  2986.3472
2024  3  1  2724.2220
2025  3  1  2557.2498
2026  3  1  2269.1197
2027  3  1  2474.3053
2028  3  1  2501.7635
2029  3  1  2325.6098
2030  3  1  2391.7170
2031  3  1   545.8677
2032  3  1   433.8827
2033  3  1   842.7559
2034  3  1  1479.5161
2035  3  1  1283.9722
2036  3  1  1301.5430
2037  3  1  1007.1551
2038  3  1  1324.6323
2039  3  1  2127.5741
2040  3  1  1859.9949
2041  3  1  3179.1834
2042  3  1  3706.8936
2043  3  1  3657.0618
2044  3  1  3352.2868
2045  3  1  3246.7175
