pseudo ref pts
2019       33224.3203  0.2443  0.2437  0.9757  1.0135       14687.8055
2020       35178.5139  0.2047  0.2729  1.1015  1.0937       15337.8175
2021       24264.1755  0.3247  0.4191  1.4555  0.8683       15505.3698
2022       23353.1489  0.6053  0.5791  1.2429  0.8571       16056.0842
2023       24518.3357  0.3750  0.4004  1.4243  0.9587       16636.4178
2024       18644.6313  0.4945  0.5167  0.5627  0.8196       17305.1054
2025       18813.9321  0.6756  0.6887  0.6291  0.8601       19146.1270
2026       19647.0486  0.5035  0.4118  0.4018  1.0955       19637.2296
2027        7111.6170  1.6523  0.4850  0.4945  0.5457       17544.4297
2028        4112.4743  0.9645  0.4324  1.0070  0.4987       17423.1666
2029        5237.0219  0.6805  0.3737  2.9361  0.6821       18146.1671
2030        6874.3334  0.4759  0.4240  1.9078  0.7786       17074.4541
2031        8194.3640  0.2042  0.5072  1.0273  0.8447       15164.4233
2032       12243.2396  0.2078  0.4272  0.3633  1.0825       15447.9825
2033       17408.6317  0.1490  0.3345  0.9526  1.3025       15630.4621
2034       22467.9723  0.2086  0.2652  1.2507  1.4309       15276.7698
2035       23294.2250  0.2278  0.3414  2.7126  1.3103       15405.1884
2036       24545.9328  0.2332  0.3412  0.8645  1.2682       15707.8914
2037       15460.2103  0.4554  0.5922  0.4187  0.8308       14849.5636
2038       23750.4884  0.4097  0.6021  0.4343  1.1889       16786.2272
2039       17969.7337  0.4893  0.4938  2.5258  1.0097       15161.6445
2040       20006.6019  0.4833  0.4472  2.7743  1.0064       15328.0998
2041       22520.1487  0.3700  0.4730  3.0190  1.0192       15658.0912
2042       19245.6435  0.4157  0.4440  0.0697  0.8999       14285.2788
2043       13343.5350  0.5372  0.4804  0.1046  0.6688       13984.0237
2044       15378.4040  0.3871  0.4090  0.1583  0.7256       14780.1259
2045       16602.0099  0.3812  0.3406  1.9005  0.8585       15217.4123
