Year Ft Rg C
2019  3  1  3942.2436
2020  3  1  1568.0130
2021  3  1  2388.3811
2022  3  1  1960.5166
2023  3  1  3017.2232
2024  3  1  2262.9022
2025  3  1  2668.9491
2026  3  1  2469.3720
2027  3  1  2762.2434
2028  3  1  2066.4671
2029  3  1  2426.0787
2030  3  1  2513.0046
2031  3  1  1910.3781
2032  3  1  1569.2875
2033  3  1  1981.3622
2034  3  1  3086.7421
2035  3  1  3379.1112
2036  3  1  4310.2655
2037  3  1  8192.2897
2038  3  1 15615.9731
2039  3  1 17687.1615
2040  3  1 16012.1524
2041  3  1 12197.0532
2042  3  1  4939.4672
2043  3  1  3735.8773
2044  3  1  2104.0707
2045  3  1  2789.5722
