pseudo ref pts
2019       31295.5558  0.2705  0.2985  1.0737  1.1884       30357.1782
2020       38470.4922  0.1642  0.2603  1.1605  1.4280       31011.6917
2021       35198.1098  0.1511  0.2139  0.8089  1.2338       29427.0625
2022       35469.3226  0.1869  0.3079  0.6838  1.2448       31712.2012
2023       21625.3557  0.3595  0.3838  0.7095  0.7103       29555.4946
2024       15856.6758  0.3942  0.3824  0.8210  0.5649       27899.9671
2025       24113.4977  0.2625  0.3314  1.9779  0.8235       29848.4389
2026       38975.7472  0.1616  0.2744  1.2029  1.2685       30844.3670
2027       28572.4862  0.2018  0.3033  0.8429  0.9513       30706.6976
2028       39523.8196  0.1770  0.3089  0.6448  1.2520       32511.3149
2029       41184.4382  0.1502  0.2656  0.7961  1.3197       32343.7436
2030       38052.1279  0.2055  0.2537  1.2895  1.3044       32321.2486
2031       28014.2039  0.3582  0.3026  1.2565  0.9881       29344.4185
2032       26595.7453  0.2498  0.3049  3.5970  0.9626       29759.3736
2033       23738.9506  0.3217  0.3506  1.6801  0.8043       28405.5397
2034       34255.3979  0.1489  0.1952  3.5983  0.9646       27120.9003
2035       52992.1384  0.1667  0.2782  3.2336  1.3847       28329.0663
2036      114816.5601  0.1616  0.2942  5.9516  1.9110       31114.0335
2037      188808.1942  0.1175  0.3288  2.4185  2.1760       32786.3777
2038      209821.9200  0.2753  0.3358  0.4559  1.9147       32065.1817
2039      168489.2688  0.2819  0.3363  0.0600  1.5211       31781.5587
2040      123736.8503  0.3254  0.3108  0.1076  1.1700       31864.5556
2041       72090.3259  0.5620  0.2774  0.2046  0.7189       29538.2150
2042       36361.9350  0.2683  0.1834  2.2150  0.5188       27058.7154
2043       37060.8134  0.3897  0.2726  1.8726  0.7012       31114.2188
2044       28263.4169  0.2495  0.2755  2.8541  0.6995       28535.2044
2045       32406.7423  0.3136  0.4165  0.8563  0.8575       31411.4030
