Year Ft Rg C
2019  3  1  3115.2724
2020  3  1  1585.2663
2021  3  1  1733.0538
2022  3  1  1734.7749
2023  3  1  2191.1757
2024  3  1  2445.7389
2025  3  1  2184.0757
2026  3  1  2339.0648
2027  3  1  3144.3211
2028  3  1  3492.2262
2029  3  1  4113.1145
2030  3  1  5406.1406
2031  3  1  3338.6762
2032  3  1  2875.5447
2033  3  1  3050.6853
2034  3  1  2688.3221
2035  3  1  2455.5730
2036  3  1  2780.6775
2037  3  1  4077.0886
2038  3  1 11169.9945
2039  3  1  7023.8280
2040  3  1  5459.9622
2041  3  1  4504.3211
2042  3  1  1262.6136
2043  3  1  2112.4210
2044  3  1  1409.0043
2045  3  1  1697.1606
