pseudo ref pts
2019       11330.6137  0.4781  0.2742  0.5149  0.4469       24474.6906
2020        8441.6232  0.2258  0.3322  0.3875  0.3427       23658.1431
2021       14533.2887  0.1418  0.2403  0.3911  0.5198       24630.2496
2022       13061.8177  0.2088  0.3354  0.3102  0.4264       22832.2386
2023       24719.9695  0.1464  0.3608  0.5359  0.7937       28200.9834
2024       44940.1818  0.1611  0.2922  2.9308  1.3652       31706.6040
2025       75393.6663  0.1421  0.3089  5.8264  1.9610       36297.7658
2026       50712.0467  0.3234  0.2950  5.8719  1.2020       32257.0989
2027       48792.9970  0.3055  0.2950  1.4414  1.1778       31049.4119
2028       54360.1917  0.2068  0.3244  1.2752  1.2247       32622.6261
2029       88226.2739  0.1533  0.3364  0.7076  1.8728       35479.4201
2030       56925.6458  0.3636  0.3827  0.4186  1.2488       32337.0506
2031       46128.0875  0.4234  0.3295  0.3017  1.0573       30585.9563
2032       30393.6991  0.4868  0.4519  0.4307  0.8419       29451.5559
2033       19178.9253  0.8098  0.5415  0.6151  0.6160       28752.3037
2034       32399.1786  0.3374  0.4663  5.8150  1.1696       34144.4393
2035       46687.9844  0.2358  0.4238  7.0361  1.5482       33954.2999
2036       49980.2183  0.4022  0.6145  4.5675  1.3979       33434.6264
2037       83473.6996  0.2349  0.5571  0.8906  2.1695       39022.6594
2038       76874.0553  0.6406  0.5230  0.5937  1.7998       36820.9483
2039       57885.2926  0.7145  0.4625  0.5630  1.3195       37574.1462
2040       35730.8873  0.5260  0.3601  0.4222  1.0759       34117.5111
2041       18084.6426  1.0094  0.3404  0.5051  0.6743       31015.2005
2042       10742.1462  0.2901  0.3601  0.5928  0.5476       31693.5437
2043       17379.4195  0.2342  0.3616  2.7820  0.9202       35199.9594
2044       25295.5349  0.1369  0.2968  3.4200  1.2254       33945.6962
2045       36089.6440  0.1393  0.3256  2.8350  1.4455       31511.2727
