Year Ft Rg C
2019  3  1  3180.1301
2020  3  1  1943.4393
2021  3  1  2875.8314
2022  3  1  2904.4172
2023  3  1  3924.8738
2024  3  1  3299.4270
2025  3  1  2031.0956
2026  3  1  1997.8315
2027  3  1  2126.7691
2028  3  1  1334.1769
2029  3  1  1470.4601
2030  3  1  2850.0320
2031  3  1  2861.6158
2032  3  1  3519.5497
2033  3  1  4421.2148
2034  3  1  2230.4075
2035  3  1  1514.7604
2036  3  1  2317.0455
2037  3  1  1977.6163
2038  3  1  2561.9524
2039  3  1  4580.0991
2040  3  1  3962.6130
2041  3  1  3868.9864
2042  3  1  3241.4994
2043  3  1  2498.5362
2044  3  1  3211.9552
2045  3  1  2741.3036
