pseudo ref pts
2019       39000.8061  0.2539  0.3344  1.4961  1.6857       34353.6246
2020       35782.2250  0.3102  0.3722  1.4367  1.5705       34035.4817
2021       30430.3080  0.3782  0.3865  1.1082  1.2875       31808.8161
2022       30853.2341  0.2992  0.3574  1.3057  1.3986       34149.1352
2023       27908.8901  0.3517  0.3980  0.9293  1.2411       34438.8608
2024       36389.6614  0.2269  0.3432  1.1812  1.6988       37362.0447
2025       25466.5877  0.2587  0.2920  0.7042  1.2281       34080.1625
2026       19224.9133  0.2768  0.3018  1.0432  1.0106       31351.7798
2027       18724.0940  0.3149  0.3298  3.1211  1.0199       32451.1531
2028       19815.4145  0.1625  0.2560  2.4467  0.9811       28471.2312
2029       33479.9356  0.0985  0.2409  2.0724  1.4210       30956.3535
2030       28530.8749  0.1946  0.3035  0.6420  1.1796       29767.1090
2031       26705.6283  0.2562  0.3746  0.5306  1.0171       28371.7432
2032       32260.1903  0.2773  0.4570  0.6445  1.0538       30804.4143
2033       23033.1769  0.3021  0.3455  0.3423  0.7647       25657.7953
2034       17700.9453  0.3551  0.4530  0.5249  0.6180       25921.1784
2035       13215.6840  0.4323  0.5453  0.5087  0.4848       25724.2037
2036       17158.4362  0.2856  0.4829  1.9572  0.6418       26081.7298
2037       33801.6694  0.1309  0.3155  1.7552  1.1707       30214.9367
2038       36391.7399  0.1820  0.3049  2.1526  1.0730       30778.8265
2039       36834.1023  0.2710  0.4045  0.4640  1.0021       29860.7420
2040       45883.6806  0.2395  0.3091  0.8883  1.1817       30405.5239
2041       55168.1014  0.1612  0.1883  0.7827  1.2880       30113.7796
2042       38977.4044  0.2496  0.3484  1.6870  0.9518       30685.8326
2043       48407.9257  0.1809  0.3073  1.0620  1.1891       32567.8044
2044       54085.6720  0.2471  0.3152  0.5345  1.3703       31924.1186
2045       42663.5017  0.2056  0.2192  0.3382  1.2873       29322.3527
