Year Ft Rg C
2019  3  1  3709.9804
2020  3  1  1572.1109
2021  3  1  1883.2377
2022  3  1  5068.9634
2023  3  1  4735.8489
2024  3  1  6213.5660
2025  3  1  6468.3561
2026  3  1  8991.7805
2027  3  1  7558.6471
2028  3  1  3514.7240
2029  3  1  6367.9526
2030  3  1  8162.9569
2031  3  1  7663.2732
2032  3  1 10570.9359
2033  3  1 11011.5017
2034  3  1  7518.5746
2035  3  1  8492.0484
2036  3  1  8062.1794
2037  3  1 11332.5020
2038  3  1 12915.3978
2039  3  1  8393.4266
2040  3  1  4858.9119
2041  3  1  5034.6363
2042  3  1  5052.0025
2043  3  1  4832.1483
2044  3  1 16250.2777
2045  3  1 16374.9063
