pseudo ref pts
2019       30092.5527  0.3427  0.3827  1.2008  1.1114      100237.0249
2020       27247.3186  0.1887  0.3504  1.0365  1.0026       98974.8660
2021       42999.7587  0.1206  0.3553  1.0437  1.3572      108417.0041
2022       48322.4030  0.2234  0.4340  1.0406  1.1429      105966.1835
2023       66823.9422  0.1570  0.4183  1.2308  1.4631      109835.2875
2024       69264.6220  0.2619  0.4414  1.3501  1.2022      106109.5285
2025       82443.2416  0.2835  0.5434  1.0160  1.2626      111151.6450
2026       55330.3832  0.4415  0.4071  0.7712  0.8659       95239.7015
2027       66029.2232  0.3458  0.3016  1.7787  1.0159       96434.6376
2028       49044.0213  0.2665  0.3748  1.5490  0.6704       87558.6212
2029       78352.3621  0.1995  0.4290  1.8541  0.9749      103319.6060
2030       89332.2493  0.2039  0.3552  0.4775  1.0549      108934.4535
2031       83533.0658  0.2411  0.4148  0.4641  0.9334      105697.9711
2032      121758.6031  0.2313  0.3860  1.1468  1.2458      116229.5869
2033      111564.0347  0.2524  0.3869  2.2471  1.2193      114598.7729
2034       68631.7428  0.4350  0.3971  1.9550  0.7702       97346.7791
2035      103814.8364  0.3046  0.3430  1.5098  1.2165      101802.3591
2036      125162.3845  0.2417  0.3941  1.6987  1.3574      121068.2634
2037      113838.2594  0.2898  0.4728  0.5321  1.3456      120044.3384
2038       89001.9920  0.4538  0.4128  0.6694  1.2500      109651.4801
2039       68893.8705  0.5794  0.3493  0.7425  1.0434       99544.5188
2040       64428.7827  0.2529  0.2998  2.0092  1.1673       97611.2644
2041       68002.8700  0.2914  0.2972  4.4293  1.1875       92714.6216
2042       93063.3251  0.1561  0.2243  3.5952  1.3807       90937.5021
2043      178827.4416  0.1062  0.2776  3.9205  2.1741      102054.8984
2044      184990.2696  0.2642  0.3216  0.5571  2.1583       98107.9462
2045      115869.8320  0.4825  0.4733  0.8588  1.3164       97779.3647
