Year Ft Rg C
2019  3  1  4536.2271
2020  3  1  2312.9494
2021  3  1  2808.1482
2022  3  1  2793.3485
2023  3  1  2503.5221
2024  3  1  2847.4500
2025  3  1  2323.4830
2026  3  1  2530.0679
2027  3  1  2777.1593
2028  3  1  2702.2724
2029  3  1  2790.8004
2030  3  1  2721.5389
2031  3  1  2488.4523
2032  3  1  2483.5069
2033  3  1   472.3308
2034  3  1  1167.2707
2035  3  1  1237.7333
2036  3  1  1072.4074
2037  3  1  2095.3701
2038  3  1  2152.1055
2039  3  1  3243.6762
2040  3  1  4822.3701
2041  3  1  4489.5809
2042  3  1  4612.4208
2043  3  1  3015.5219
2044  3  1  3200.8741
2045  3  1  3398.1765
