pseudo ref pts
2019       31461.3014  0.4682  0.4683  1.3092  1.2013       15239.8904
2020       32102.2154  0.5774  0.5577  1.3620  1.2102       17025.4292
2021       33457.1176  0.5957  0.6499  1.5683  1.3850       18821.1297
2022       21233.9864  1.5434  0.6507  1.0113  1.0861       17664.1047
2023        9873.4237     NaN  0.4304  0.6573  0.7793       15367.1210
2024        1964.5472     NaN  0.5514  1.2971  0.5190       15400.3889
2025        3820.7474     NaN  0.5817  2.1225  0.8770       16735.2353
2026        4488.6098  1.3170  0.4888  2.6716  0.9073       15139.3795
2027        6092.3736  0.7003  0.4649  1.0024  1.2552       15666.1902
2028        5205.1813  0.8843  0.4969  0.5575  0.8075       13130.8417
2029        9201.9730  0.4060  0.3486  0.4311  1.1311       14648.1576
2030        9095.4969  0.4141  0.3349  0.3877  1.0272       15779.4769
2031        8999.4693  0.4750  0.3528  1.5868  1.0235       16716.3474
2032        7844.9988  0.5387  0.3223  3.5782  0.7618       14687.6487
2033       15905.2038  0.1375  0.3769  7.7869  1.1703       16610.6828
2034       29185.6729  0.1580  0.3116  1.6779  1.7053       16401.9442
2035       35391.8918  0.1292  0.3079  0.2863  1.8226       17394.5117
2036       47797.7795  0.2340  0.3715  0.3288  2.1207       17550.8345
2037       38283.4499  0.2983  0.3705  3.6284  1.6973       18018.0519
2038       29092.5279  0.4192  0.3204  9.2630  1.1820       15709.2907
2039       46766.9342  0.2587  0.3479  9.4131  1.6225       15834.8434
2040       58245.3883  0.2180  0.3446  0.3399  1.8953       17329.0460
2041       41378.1312  0.2907  0.3827  0.2799  1.2693       17128.3750
2042       30985.3068  0.4834  0.3839  0.2152  0.8809       15258.4330
2043       28138.4382  0.4478  0.2718  1.0602  0.8749       13891.9203
2044       14273.8069  0.3781  0.2951  0.3717  0.6218       13221.0749
2045        9729.3938  0.4561  0.2485  0.3764  0.5120       13220.6799
