Year Ft Rg C
2019  3  1  3343.7924
2020  3  1  3002.2370
2021  3  1  3470.6406
2022  3  1  3313.6001
2023  3  1  2344.8059
2024  3  1  2074.6034
2025  3  1  2448.3800
2026  3  1  2778.6543
2027  3  1  3314.0297
2028  3  1  3172.9557
2029  3  1  3469.9374
2030  3  1  2514.0867
2031  3  1  2723.2958
2032  3  1  4712.6681
2033  3  1  3343.8908
2034  3  1  1596.5958
2035  3  1  2186.8801
2036  3  1  3093.0505
2037  3  1  2974.3452
2038  3  1  3569.9248
2039  3  1  3333.3742
2040  3  1  1887.9040
2041  3  1  1883.2823
2042  3  1  2651.5220
2043  3  1  2087.3713
2044  3  1  1171.4281
2045  3  1  1736.7013
