pseudo ref pts
2019       40265.2771  0.2831  0.3747  1.4308  1.4999       33115.9396
2020       37766.0270  0.3769  0.3786  1.2792  1.4372       31645.6215
2021       32027.5173  0.3528  0.3546  0.7623  1.3188       32143.0216
2022       25542.5050  0.3762  0.4517  1.0306  1.1554       33330.4143
2023       22202.9645  0.3777  0.3321  1.1478  0.9474       30542.9010
2024       41484.0922  0.1320  0.2539  3.2113  1.6016       34798.0728
2025       37789.3832  0.1447  0.2753  1.8894  1.3354       33054.2794
2026       32641.0800  0.2478  0.3650  1.1574  1.1798       33580.8050
2027       45236.4726  0.1652  0.2622  1.2418  1.4697       32485.8297
2028       44738.1225  0.1795  0.2969  0.9172  1.4163       31949.1189
2029       45249.5783  0.2063  0.3088  1.1317  1.3959       33132.5583
2030       65704.3505  0.2173  0.4249  2.1733  1.9540       38226.1756
2031       71052.0847  0.2020  0.3959  1.9705  1.9776       37715.7756
2032       77049.8748  0.3138  0.3107  1.2345  2.1589       36906.0795
2033       51663.3866  0.4969  0.3459  2.0684  1.7887       36334.7298
2034       33327.2970  0.4857  0.2628  1.6895  1.1829       30341.2815
2035       39061.0752  0.4113  0.2664  3.0248  1.2318       30245.4795
2036       40613.4480  0.2607  0.3068  0.5833  1.4934       31532.3421
2037       41937.5561  0.2597  0.3381  0.9564  1.6450       33052.8200
2038       39442.4324  0.3627  0.3466  0.9337  1.4887       33070.4238
2039       26178.9537  0.4168  0.3037  1.6131  1.0896       28896.4953
2040       25333.3226  0.1941  0.2918  0.8564  1.0910       30492.2488
2041       34297.6820  0.2042  0.3961  1.0466  1.3662       34262.2550
2042       24038.8014  0.3418  0.3550  1.0484  0.9881       31996.2143
2043       23478.1507  0.4526  0.3706  1.2658  0.9496       29725.9287
2044       31876.4273  0.1811  0.3471  1.3110  1.1461       30776.5783
2045       38001.6321  0.1330  0.2686  0.6445  1.3254       30708.9968
