Year Ft Rg C
2019  3  1  3082.9103
2020  3  1  1334.1182
2021  3  1  2006.1467
2022  3  1  2985.1460
2023  3  1  3510.7677
2024  3  1  5708.0640
2025  3  1  5218.1288
2026  3  1 10206.0910
2027  3  1 11802.0612
2028  3  1 17954.3453
2029  3  1 16937.1367
2030  3  1 12801.1506
2031  3  1 13250.9705
2032  3  1 18760.6714
2033  3  1 22168.9901
2034  3  1 19838.5237
2035  3  1 12695.9323
2036  3  1 10796.4020
2037  3  1 10985.4542
2038  3  1  5585.8209
2039  3  1  7524.4140
2040  3  1  6063.0768
2041  3  1  8007.8391
2042  3  1 12401.1457
2043  3  1 14325.7002
2044  3  1 25263.7987
2045  3  1 23985.0925
