pseudo ref pts
2019       32446.4424  0.3282  0.3356  1.3332  1.3329       94602.4943
2020       27082.5058  0.1920  0.2900  1.0136  1.0951       86432.8391
2021       54141.6599  0.1114  0.2446  1.1089  1.6199       89761.3628
2022       63162.8639  0.1437  0.3051  0.8463  1.4661       95262.6375
2023       83864.6915  0.1398  0.3519  1.3741  1.7408       98287.2219
2024       77732.4289  0.2912  0.3524  1.2516  1.2689      100332.8406
2025      104247.9509  0.2755  0.3465  4.8799  1.4964      101119.3875
2026       86781.6071  0.4925  0.4192  2.4516  1.0657       86737.6494
2027       83549.8158  0.6200  0.6181  1.9067  0.8100       89597.8281
2028       76502.6369  0.5985  0.5249  0.1888  0.6581       86983.6829
2029       78400.0897  0.4601  0.3812  0.4270  0.6608       83214.5402
2030       93471.5317  0.3237  0.3698  0.8292  0.7083       90639.4926
2031      126787.4354  0.2558  0.3677  3.5128  0.8462       98225.0474
2032      237948.0850  0.1946  0.3706  1.5296  1.6364      110893.4544
2033      172662.2757  0.1969  0.2915  0.2476  1.2998       98791.2601
2034      134874.4176  0.3877  0.3945  0.2543  0.9708       92443.9999
2035      110246.6029  0.5230  0.5100  0.4614  0.8533       99202.8536
2036      125972.7987  0.4992  0.4749  4.1978  1.1407      113286.2584
2037       46676.3993  1.3323  0.5411  1.2929  0.4992       91020.6402
2038       45102.6023  0.5271  0.6002  1.6932  0.6049       86537.1350
2039       61306.0821  0.4065  0.5456  0.8334  0.7935       93908.5130
2040       92003.9412  0.3242  0.5405  1.7040  1.1586      102923.4077
2041      145084.7853  0.2813  0.4651  2.8352  1.7040      100205.3483
2042      136599.1364  0.5706  0.3952  2.9169  1.2089       96961.0816
2043      164183.5964  0.5470  0.4654  2.1395  1.1886       98295.0693
2044      133127.1947  0.7173  0.5454  0.4139  1.1051       90207.5550
2045      129871.3945  0.7205  0.5286  0.5913  1.0159       95359.4240
