Year Ft Rg C
2019  3  1  4140.7018
2020  3  1  2191.0102
2021  3  1  2600.6426
2022  3  1  4886.1042
2023  3  1  4637.3605
2024  3  1 10131.6865
2025  3  1  8372.0989
2026  3  1  8212.2222
2027  3  1  8215.0757
2028  3  1  6998.2367
2029  3  1  9986.6512
2030  3  1 16501.2960
2031  3  1 12866.9320
2032  3  1 10966.3452
2033  3  1  8915.7718
2034  3  1  8288.4700
2035  3  1  9062.7579
2036  3  1 16918.7056
2037  3  1 13905.7354
2038  3  1 20544.5702
2039  3  1 19232.2437
2040  3  1 30314.8484
2041  3  1 23880.5352
2042  3  1 14713.8207
2043  3  1 13900.6683
2044  3  1  7765.6847
2045  3  1  8427.2547
