pseudo ref pts
2019       22553.8496  0.3300  0.3613  0.7912  0.8182       94835.3441
2020       34472.2711  0.1606  0.3583  1.1406  1.2211      101869.2640
2021       51676.0997  0.1420  0.4236  1.0727  1.4176      108840.5000
2022       58618.9894  0.2310  0.4659  1.0763  1.4194      109691.5949
2023       47777.1146  0.4476  0.7882  0.7616  1.0301      102183.3192
2024       60023.8960  0.4620  0.5427  1.0116  1.0022       98472.3601
2025       62049.7511  0.4363  0.5475  1.3092  0.9370      101709.0750
2026       67731.0879  0.3942  0.4212  1.6019  0.9043       92002.9524
2027       60313.2883  0.3523  0.3341  1.4589  0.6789       80413.7436
2028       84591.3866  0.3140  0.4479  0.9077  0.8670       81888.5878
2029      121080.9456  0.2252  0.3675  0.7260  1.0752       85549.2238
2030       92025.1326  0.4261  0.3901  0.2648  0.8081       85078.6631
2031      109375.2822  0.3508  0.3487  0.4442  0.9748       89593.4123
2032       83160.7414  0.3900  0.3667  0.7566  0.8295       90315.0734
2033       61179.5374  0.6775  0.4729  1.2364  0.6193       84668.6102
2034       55628.8441  0.5366  0.5834  1.0912  0.6343       82975.8132
2035       75165.3890  0.3733  0.5689  1.0374  0.9248       93182.6624
2036       55886.1225  0.6653  0.5009  1.1383  0.6415       85773.7922
2037       87709.2534  0.5079  0.5091  1.6259  0.8810       89881.8939
2038      110400.1896  0.4232  0.4067  1.0892  0.9394       84373.6839
2039      114598.9814  0.4438  0.4867  0.4998  0.8702       90138.4699
2040       83615.2157  0.7119  0.4165  0.2893  0.6183       77518.4331
2041      105998.8958  0.5469  0.3861  0.4006  0.7643       84000.2976
2042       84818.0799  0.4763  0.4915  0.5027  0.7217       88660.5454
2043       56222.1267  0.6277  0.4225  0.6937  0.5021       79787.6216
2044       55134.5520  0.3568  0.5313  1.0221  0.4898       83305.7589
2045       85252.2724  0.2471  0.4267  0.8214  0.6756       87954.3735
