Year Ft Rg C
2019  3  1  3718.6442
2020  3  1  2790.2807
2021  3  1  2527.9359
2022  3  1  2422.3197
2023  3  1  1989.4919
2024  3  1  1594.1527
2025  3  1  2029.3189
2026  3  1  2156.5123
2027  3  1  1865.1602
2028  3  1  2083.2261
2029  3  1  3226.0350
2030  3  1  3313.6380
2031  3  1  3111.3285
2032  3  1  3136.2074
2033  3  1  3192.7403
2034  3  1  3430.7776
2035  3  1  2897.1483
2036  3  1  3522.5219
2037  3  1  3497.1224
2038  3  1  4069.7683
2039  3  1  2711.1990
2040  3  1  2141.6516
2041  3  1  2279.6152
2042  3  1  2946.2096
2043  3  1  3654.0161
2044  3  1  2809.5312
2045  3  1  3431.3323
