pseudo ref pts
2019       31272.5854  0.4506  0.5323  1.1667  1.0294       16097.9627
2020       27144.9789  0.5169  0.4235  1.0129  0.9169       15100.9365
2021       19439.3547  0.6171  0.4658  0.7072  0.6736       16161.8798
2022       19740.9260  0.4020  0.3828  1.1863  0.8275       16307.5049
2023       17228.3116  0.5064  0.4070  1.3935  0.7703       15953.5464
2024       19820.4120  0.3831  0.4096  1.9006  1.0548       15228.5811
2025       18696.9269  0.3766  0.4363  1.5463  1.1009       16172.4171
2026       17866.0394  0.5411  0.5357  1.5352  1.1207       16593.3306
2027       23036.2878  0.4886  0.5282  3.1662  1.3419       17485.4430
2028       34186.3955  0.3792  0.4919  2.7755  1.5631       19001.8503
2029       19727.0755  0.5142  0.4895  0.6738  0.7876       16220.3791
2030       20970.4978  0.5193  0.5285  0.2144  0.8308       15015.8440
2031       24960.4060  0.5049  0.5266  0.2916  0.9278       15929.4788
2032       29956.7933  0.4525  0.4057  0.7503  1.1180       17716.1825
2033       21558.0442  0.4438  0.3214  0.7562  1.0249       19616.6575
2034       12218.6271  0.6264  0.3519  0.8837  0.8267       17882.0317
2035        7478.1871  1.6059  0.3790  0.7676  0.6467       15836.8054
2036        3452.7939  1.8179  0.3715  0.7392  0.4328       14172.6082
2037        2602.7197  4.1696  0.6344  0.5760  0.4318       14714.2328
2038        2169.6607  8.1639  0.5881  0.3680  0.5175       14477.3769
2039        2144.9877     NaN  0.4282  0.9542  0.7551       15441.7151
2040        1521.1104     NaN  0.4153  0.6352  0.5902       14827.2958
2041        2534.5937     NaN  0.2109  2.4628  0.9135       14985.4608
2042        3285.0215  1.4071  0.1882  1.1945  1.0562       13249.5509
2043        4602.4940  0.8190  0.2018  1.3070  1.1551       12648.1331
2044        4989.1398  0.4981  0.1548  0.5146  1.2667       12936.8544
2045        4511.3069  0.9428  0.2934  0.9331  1.0124       13964.3287
