Year Ft Rg C
2019  3  1  3117.7027
2020  3  1  2336.9996
2021  3  1  2747.7106
2022  3  1  2432.7361
2023  3  1  3522.9303
2024  3  1  3410.3674
2025  3  1  2664.6323
2026  3  1  3244.1904
2027  3  1  3185.1956
2028  3  1  2166.8138
2029  3  1  2020.7157
2030  3  1  1088.5618
2031  3  1  1457.7502
2032  3  1   951.6334
2033  3  1  1316.2784
2034  3  1  3756.5108
2035  3  1  2271.8242
2036  3  1  2577.3788
2037  3  1  2224.9281
2038  3  1  1565.6974
2039  3  1  2770.1261
2040  3  1  6572.9170
2041  3  1  8731.9860
2042  3  1  9886.0243
2043  3  1  7199.8360
2044  3  1  6504.4349
2045  3  1  4135.1406
