pseudo ref pts
2019       27887.0856  0.4257  0.5461  1.0540  1.0529       35733.5493
2020       25772.0681  0.2790  0.3219  0.8572  0.9558       32059.7715
2021       19297.9983  0.3784  0.3856  0.9455  0.7764       28612.4169
2022       23959.3668  0.1875  0.3208  0.9032  0.8694       32012.8722
2023       21566.5075  0.2860  0.4096  0.6813  0.7430       30094.4486
2024       14171.4641  0.4267  0.4673  0.1686  0.4836       26563.3446
2025       21651.7187  0.2864  0.3613  0.3656  0.7524       27337.1896
2026       22110.3438  0.3275  0.4325  0.6047  0.8217       30760.2548
2027       22315.4019  0.2597  0.3439  1.0220  0.8821       31016.4958
2028       18263.7056  0.3071  0.3609  0.8129  0.8063       29290.0490
2029       19151.8322  0.2900  0.3111  2.0427  0.9315       29766.8022
2030       20540.3081  0.1589  0.2243  3.7750  1.0355       29051.7581
2031       22395.8500  0.1290  0.2155  3.0112  1.0343       27572.3175
2032       31129.7015  0.1149  0.3385  0.8613  1.2863       29892.5147
2033       53825.6703  0.0687  0.3125  0.8787  2.0860       36923.1405
2034       49738.0745  0.2278  0.3002  0.5582  1.7595       34589.2371
2035       30589.3541  0.3690  0.3358  0.7020  1.1604       30592.8680
2036       18527.2750  0.3682  0.3041  2.2421  0.8112       28187.2808
2037       18183.8511  0.6051  0.4851  3.2040  0.6871       29063.0529
2038       21007.8947  0.2483  0.4150  2.8261  0.6605       26143.6388
2039       24383.9435  0.2232  0.4496  0.5789  0.7244       26803.2065
2040       39742.3649  0.2987  0.3551  0.6432  0.8952       26941.9347
2041       51113.0482  0.2940  0.4600  0.4479  0.9498       30303.4895
2042       45233.7437  0.3875  0.3622  0.3675  0.7462       28505.2295
2043       33583.2507  0.4877  0.4591  0.1663  0.6126       29664.2816
2044       34817.4523  0.3667  0.4120  0.3104  0.6674       29399.4389
2045       30038.9592  0.3475  0.3879  0.2903  0.7223       28646.5720
