Year Ft Rg C
2019  3  1  3655.2999
2020  3  1  1841.6241
2021  3  1  2906.2314
2022  3  1  2380.8833
2023  3  1  5228.3062
2024  3  1 10584.1666
2025  3  1 10602.9830
2026  3  1 13913.6184
2027  3  1 17261.3568
2028  3  1 26661.0711
2029  3  1 32841.0753
2030  3  1 25632.4350
2031  3  1 24843.0919
2032  3  1 13587.1322
2033  3  1 16939.7705
2034  3  1 12383.3079
2035  3  1 12601.8966
2036  3  1 17108.3747
2037  3  1 24824.3250
2038  3  1 27203.4540
2039  3  1 34566.9511
2040  3  1 28693.2532
2041  3  1 24443.6735
2042  3  1 18417.8532
2043  3  1 16688.8852
2044  3  1 19073.7046
2045  3  1 11378.6950
