pseudo ref pts
2019       32927.7849  0.2543  0.3002  1.4890  1.2599      104352.9427
2020       42702.7898  0.1053  0.2590  1.5720  1.6587      103418.7031
2021       36220.3973  0.1379  0.2573  2.5151  1.1381       88604.5402
2022       66346.9303  0.1237  0.3141  1.8999  1.3225       89036.7555
2023      122739.9533  0.0717  0.2260  2.0712  1.7308       93751.7937
2024      127012.6920  0.1512  0.2396  0.1413  1.4603       86618.4311
2025      168834.0235  0.1255  0.2294  2.0327  1.6513       99044.6788
2026      142646.2797  0.3493  0.3505  2.5793  1.0356       94982.9846
2027      229694.8254  0.1914  0.2918 14.0868  1.3078       98712.8649
2028      165547.0227  0.3929  0.3124  0.5892  0.8712       76010.3170
2029      187815.3322  0.4175  0.3506  0.2394  0.9498       75491.6528
2030      196058.8114  0.3602  0.3518  0.1875  0.9231       84426.5667
2031      140749.5390  0.4119  0.3701  0.3874  0.7276       83110.1428
2032      154848.7586  0.3153  0.3469  1.2393  0.9062       90900.2394
2033      154827.6527  0.3753  0.3747  2.9427  0.9717       93170.6627
2034      140490.2718  0.3132  0.2936  1.7078  0.9749       90207.1516
2035      135491.0727  0.2637  0.3014  2.5464  1.0755       96627.0875
2036      218108.6993  0.1721  0.2679  2.1086  1.5710      102597.4911
2037      178512.8005  0.2502  0.3653  1.9781  1.0437       98160.0733
2038      115131.7398  0.4156  0.3957  0.2741  0.6808       81412.0789
2039      126016.6790  0.4667  0.5166  0.3319  0.7703       89879.7418
2040       89016.1627  0.6454  0.5401  0.1890  0.4919       80217.4785
2041      123336.4976  0.3995  0.4288  0.5322  0.6940       88916.6042
2042      108201.3047  0.4438  0.3960  0.3014  0.6146       82337.5543
2043       93740.3936  0.6588  0.5583  0.3852  0.6291       80300.6245
2044       63839.3873  1.0048  0.6239  0.3505  0.5145       77917.7604
2045       60817.2310  0.8613  0.4528  1.4055  0.5839       78687.0619
