Year Ft Rg C
2019  3  1  3402.3676
2020  3  1  2870.3272
2021  3  1  3330.9253
2022  3  1  4963.9527
2023  3  1  6622.9293
2024  3  1  8328.8105
2025  3  1  8406.1816
2026  3  1  7166.3952
2027  3  1  7400.1745
2028  3  1  5257.8386
2029  3  1 10918.0893
2030  3  1 16291.5314
2031  3  1 13751.1279
2032  3  1 13256.1553
2033  3  1 11761.8937
2034  3  1 17343.1438
2035  3  1 16287.8234
2036  3  1 12789.5802
2037  3  1  9201.6513
2038  3  1 10242.1500
2039  3  1  8318.2739
2040  3  1  5571.6916
2041  3  1  6578.8082
2042  3  1  8222.3355
2043  3  1  6851.8876
2044  3  1  8626.3991
2045  3  1  5415.4428
