pseudo ref pts
2019       25586.5993  0.4004  0.4923  0.8362  0.8372       98268.6047
2020       18643.7996  0.3635  0.5069  0.5688  0.6042       88410.8891
2021       25790.0587  0.2637  0.4022  0.6686  0.6986       84877.1808
2022       30980.7309  0.2563  0.4309  0.6131  0.6805       83757.5149
2023       52787.0885  0.2090  0.4117  0.7511  0.9678       91104.1031
2024       58850.3735  0.2533  0.3645  0.7391  0.8914       87912.3373
2025       80020.0875  0.2182  0.3209  0.6192  0.9569       88305.2068
2026       82308.5164  0.2286  0.2939  1.7868  0.9155       88523.0332
2027       75879.0070  0.2234  0.2445  1.5424  0.7454       85991.7956
2028       95176.0672  0.1128  0.2062  2.2459  0.8539       83758.3734
2029      131352.7878  0.0962  0.2076  0.8084  1.0768       87394.7053
2030       94937.4461  0.1920  0.2535  0.5121  0.7406       86487.8542
2031      115401.2299  0.1665  0.2860  0.6839  0.8144       94350.3069
2032       93228.2008  0.3190  0.5508  0.4262  0.6208       97219.3130
2033       93886.2546  0.3663  0.5256  0.6870  0.6040       91586.2634
2034      107498.9849  0.3047  0.3352  0.6512  0.6845       91222.8924
2035       77651.1255  0.4252  0.4074  0.4490  0.5319       87156.4590
2036       82337.4428  0.3108  0.4175  0.2041  0.6495       81227.6966
2037       69109.2580  0.3019  0.3623  0.2414  0.5854       79769.6496
2038       52364.7362  0.3195  0.3181  0.2947  0.5055       74284.1824
2039       44658.7872  0.2983  0.3023  1.0018  0.5287       75079.0817
2040       53010.5977  0.1691  0.3274  0.9256  0.6564       83275.1364
2041       82965.2106  0.1228  0.3301  1.8515  0.9814       98400.4708
2042       66934.9508  0.2367  0.3342  0.3460  0.8262       93374.1863
2043       83747.4900  0.1952  0.2861  1.5416  1.1162       94651.0220
2044      109339.3033  0.2424  0.3585  1.4792  1.3405       98638.4106
2045      116147.9048  0.2314  0.4077  3.4840  1.2823       98350.9772
