Year Ft Rg C
2019  3  1  3709.9804
2020  3  1  3024.7515
2021  3  1  2954.1072
2022  3  1  3353.7854
2023  3  1  2961.6320
2024  3  1  2024.6876
2025  3  1  1866.9503
2026  3  1  3120.5756
2027  3  1  2328.3363
2028  3  1  1252.8512
2029  3  1  1789.0933
2030  3  1  3374.7109
2031  3  1  3318.0234
2032  3  1  2764.3788
2033  3  1  2729.3772
2034  3  1  2542.8402
2035  3  1  2934.3577
2036  3  1  2282.2311
2037  3  1  3684.3520
2038  3  1  4070.8304
2039  3  1  2552.0621
2040  3  1  1401.8315
2041  3  1  1895.1230
2042  3  1  1372.0307
2043  3  1  1582.8728
2044  3  1  3606.8885
2045  3  1  4041.2936
