pseudo ref pts
2019       30092.5527  0.3448  0.3827  1.2008  1.1114       33412.3416
2020       23693.6907  0.3514  0.3587  1.0365  0.8719       33012.0698
2021       26756.7616  0.2776  0.3665  1.0435  1.0644       36031.6713
2022       22932.5364  0.3305  0.4407  1.0400  0.8880       35242.8046
2023       26827.1485  0.2656  0.4215  1.2295  1.1277       36754.8378
2024       24064.0058  0.2954  0.4414  1.3488  0.9893       35347.2952
2025       27283.9057  0.3219  0.5434  1.0152  1.1183       36970.2352
2026       17656.1146  0.4575  0.4102  0.7709  0.8002       31640.6621
2027       21008.3069  0.3431  0.3016  1.7778  0.9855       32184.0272
2028       15918.8596  0.2745  0.3748  1.5484  0.6669       29166.3137
2029       25627.8487  0.1834  0.4257  1.8537  0.9837       34539.6268
2030       29643.4774  0.2196  0.3579  0.4777  1.0694       36281.1729
2031       27436.2474  0.2638  0.4180  0.4644  0.9378       35251.0394
2032       39493.2201  0.2066  0.3860  1.1475  1.2431       38664.5452
2033       37166.3266  0.2132  0.3839  2.2471  1.2209       38315.5958
2034       23579.2155  0.4076  0.4002  1.9548  0.7820       32360.8816
2035       35776.0601  0.2903  0.3430  1.5097  1.2410       34004.0569
2036       43058.1755  0.2215  0.3911  1.6987  1.3715       40515.2515
2037       39514.1572  0.2761  0.4728  0.5322  1.3501       40047.5529
2038       30951.4631  0.4416  0.4128  0.6694  1.2537       36516.7454
2039       23879.7506  0.5639  0.3466  0.7424  1.0465       33315.2236
2040       22190.9632  0.2394  0.2998  2.0077  1.1646       32481.9036
2041       23355.4158  0.2999  0.2972  4.4246  1.1827       31010.8945
2042       31288.2041  0.1455  0.2243  3.5922  1.3646       30307.6810
2043       60274.1647  0.1036  0.2776  3.9199  2.1579       34077.9616
2044       62369.6845  0.2252  0.3192  0.5578  2.1445       32709.2667
2045       40430.6215  0.4090  0.4696  0.8599  1.3297       32659.4991
