Year Ft Rg C
2019  3  1  3669.3891
2020  3  1  2723.8693
2021  3  1  2587.5253
2022  3  1  4065.5590
2023  3  1  2808.5004
2024  3  1  2701.1535
2025  3  1   969.9056
2026  3  1   993.9411
2027  3  1  1424.3391
2028  3  1  1573.9601
2029  3  1  1825.2071
2030  3  1  1662.1910
2031  3  1  1652.1266
2032  3  1  1842.5627
2033  3  1  1789.2032
2034  3  1  1894.1812
2035  3  1  1223.5126
2036  3  1  1092.0624
2037  3  1  1317.8814
2038  3  1  1439.1342
2039  3  1  1362.7552
2040  3  1  1632.1792
2041  3  1  2106.6893
2042  3  1  2810.4595
2043  3  1  3340.7795
2044  3  1  3157.1188
2045  3  1  2169.8997
