pseudo ref pts
2019       30966.1776  0.3030  0.4073  1.1374  1.1268       17929.7361
2020       25477.5725  0.3585  0.4157  1.0307  0.9976       17055.8332
2021       18998.0215  0.4881  0.4895  0.7354  0.7932       16749.5586
2022       13687.3343  0.4404  0.3597  0.6499  0.6976       14822.4818
2023       16696.1501  0.3187  0.3154  0.8873  0.9504       17549.8151
2024        9530.4214  0.3679  0.3130  1.4622  0.6529       15356.3627
2025       10869.8980  0.3129  0.3647  1.6623  0.7961       16119.1975
2026       14059.6184  0.2087  0.3735  2.4910  0.9945       15571.6938
2027       20352.9896  0.1535  0.3628  1.1077  1.3132       16474.8946
2028       28738.7791  0.2557  0.4728  1.2484  1.6379       18265.4524
2029       29710.7444  0.2176  0.4134  0.6313  1.5678       17819.1189
2030       19693.5888  0.3845  0.3551  0.4536  0.9932       16960.2691
2031       16962.1521  0.6666  0.4846  0.7960  0.9190       17248.4785
2032       17204.1816  0.5149  0.5351  1.3821  1.1235       19150.5172
2033       16171.7726  0.5119  0.4554  2.6396  1.0877       17781.3783
2034       11413.2965  0.5772  0.4447  0.9586  0.8721       15602.1614
2035        9847.5448  0.4964  0.4078  1.0600  0.8014       14738.5301
2036       14583.6411  0.1712  0.3412  0.9065  1.0971       16504.6768
2037       20861.1019  0.1251  0.2676  0.8333  1.4296       14974.1696
2038       15783.0935  0.2646  0.3973  0.5833  1.0975       15030.6804
2039       23260.9094  0.1936  0.3735  1.3350  1.4894       17704.1252
2040       28332.1208  0.2824  0.3986  3.3790  1.5470       19023.2680
2041       29513.0964  0.2998  0.3997  2.8349  1.4334       17908.2524
2042       36691.2649  0.2869  0.3314  1.6286  1.6305       17434.2018
2043       32155.2862  0.3700  0.4137  0.7294  1.3676       17870.4044
2044       30541.3436  0.3735  0.3546  0.4703  1.3314       18102.4864
2045       28249.2364  0.3351  0.2775  1.5851  1.4592       17408.2512
