Year Ft Rg C
2019  3  1  3773.4946
2020  3  1  1523.9696
2021  3  1  2160.3059
2022  3  1  2174.2225
2023  3  1  2077.8314
2024  3  1  2066.6843
2025  3  1  2114.1407
2026  3  1  2726.8231
2027  3  1  3046.0727
2028  3  1  3432.3058
2029  3  1  2870.5010
2030  3  1  3307.3668
2031  3  1  4091.5436
2032  3  1  5147.4986
2033  3  1  5583.0575
2034  3  1  3902.9133
2035  3  1  3624.7350
2036  3  1  3491.9741
2037  3  1  7185.3721
2038  3  1 10030.8708
2039  3  1  9981.7580
2040  3  1  7118.3810
2041  3  1  4039.3597
2042  3  1  2680.3937
2043  3  1  3259.7631
2044  3  1  2918.4482
2045  3  1  3530.4752
