pseudo ref pts
2019       38593.0797  0.1862  0.2377  1.4447  1.5734       34163.9578
2020       31298.4888  0.2182  0.2842  1.3134  1.2274       32189.4062
2021       21238.0088  0.2971  0.3357  0.5921  0.7648       30477.5547
2022       31537.1861  0.1480  0.2609  1.0711  1.1333       31728.8539
2023       46273.1441  0.1339  0.3051  1.6982  1.6385       34749.1474
2024       49328.2201  0.2478  0.3186  3.2982  1.6196       34916.1230
2025       45500.9181  0.3591  0.4283  2.1117  1.4737       32812.4889
2026       32708.3236  0.6024  0.4625  1.0488  1.0341       30211.2652
2027       42865.4197  0.4434  0.3833  1.4725  1.2934       32578.9620
2028       33299.7139  0.6081  0.4659  1.3349  1.0634       29900.0514
2029       39174.4774  0.4850  0.4040  1.4606  1.0731       29720.5383
2030       26870.1233  0.5980  0.4806  0.5445  0.7490       27225.2241
2031       32314.6589  0.5041  0.4915  0.4576  0.9572       29395.3531
2032       22402.8529  0.6805  0.4587  0.4120  0.6632       28161.4423
2033       24543.3045  0.7719  0.4700  0.9204  0.7342       28767.8749
2034       24801.5744  0.4040  0.3619  3.5892  0.7802       27856.8397
2035       50360.9249  0.2054  0.2406  4.4379  1.2516       28608.5328
2036       56141.5856  0.1813  0.2862  2.3025  1.1709       27043.6401
2037       57730.3119  0.2117  0.3862  0.2209  1.0614       29063.5275
2038       74602.9319  0.1861  0.2325  0.1226  1.1333       28511.1209
2039       92241.9610  0.2269  0.3400  0.1701  1.3222       32007.5040
2040       70465.5060  0.5374  0.5299  0.9511  1.0966       32807.6323
2041       51701.5631  0.6439  0.4316  2.7413  0.9410       33252.7417
2042       34342.2595  0.5117  0.3305  4.0789  0.7774       30568.4194
2043       41453.0860  0.4618  0.3812  2.1018  1.0015       34831.8267
2044       40377.6109  0.3092  0.3792  1.9166  1.0522       32327.2116
2045       30182.0701  0.4401  0.4971  0.6527  0.7798       30847.2018
