Year Ft Rg C
2019  3  1  3033.0648
2020  3  1  2882.5268
2021  3  1  2184.6138
2022  3  1  2100.5187
2023  3  1  1896.7924
2024  3  1  1660.3684
2025  3  1  1774.8181
2026  3  1  1656.5574
2027  3  1  2038.0852
2028  3  1  1924.2838
2029  3  1  2281.2594
2030  3  1   387.3223
2031  3  1   444.5462
2032  3  1  1347.3972
2033  3  1  1476.8273
2034  3  1  1343.3842
2035  3  1  1381.6480
2036  3  1  1308.9378
2037  3  1  1432.4287
2038  3  1  1207.0843
2039  3  1  1183.7166
2040  3  1  1409.6190
2041  3  1  1414.4920
2042  3  1  1195.2678
2043  3  1  1218.7716
2044  3  1   718.1599
2045  3  1   854.2588
