pseudo ref pts
2019       33112.7668  0.2990  0.3130  1.2531  1.3862       15746.8538
2020       30882.8222  0.2936  0.3622  1.2097  1.3086       16113.4933
2021       24319.8276  0.2915  0.3260  1.4963  1.2339       14834.6207
2022       22393.4842  0.3065  0.3705  1.9255  1.2522       15278.3230
2023       14562.5245  0.4470  0.4043  1.2090  0.8088       14145.1091
2024       12569.6675  0.3543  0.3741  0.5454  0.7159       13088.1438
2025       11863.4760  0.3821  0.3588  0.1352  0.7043       12779.6659
2026       13610.3208  0.2590  0.3053  0.1697  0.9309       13585.6390
2027       11363.7476  0.4306  0.4291  0.3035  0.8726       15295.8937
2028       13283.6792  0.3775  0.3308  4.1400  1.2172       16549.9146
2029        5813.7102  0.7912  0.3162  6.9849  0.5860       13548.9154
2030        8522.8224  0.1657  0.4257  6.3284  0.7620       13723.3907
2031       16020.8949  0.0934  0.3828  2.0854  1.0280       15677.7949
2032       20083.5307  0.1847  0.2577  0.1917  1.1529       13234.0975
2033       20930.2547  0.1897  0.2272  0.1209  1.0096       12443.9310
2034       18882.5183  0.2659  0.3869  0.2303  0.8885       13259.6620
2035       19065.1244  0.2935  0.3928  0.8160  0.8982       13949.1769
2036       23825.9888  0.3402  0.3723  2.7567  1.2138       14670.9462
2037       15264.9715  0.5567  0.4784  2.1832  0.9073       16086.5928
2038       12111.7159  0.5251  0.4247  2.0764  0.8234       15215.5922
2039        9322.1566  0.6617  0.4813  0.8387  0.6833       14550.2797
2040        8583.2447  0.5574  0.5353  0.5111  0.6754       14213.2870
2041        6039.5894  0.6126  0.4330  0.3982  0.5282       12323.7348
2042        5918.5226  0.4445  0.4381  0.6862  0.5422       13306.1445
2043        9735.0945  0.3026  0.4179  1.9598  0.8349       14712.9054
2044       11999.8954  0.2783  0.5292  2.3427  0.9190       15664.0235
2045       14089.9557  0.2072  0.4250  1.6270  0.9765       15067.6634
