Year Ft Rg C
2019  3  1  3189.1172
2020  3  1  4237.2161
2021  3  1  3684.8574
2022  3  1  2252.3917
2023  3  1  2401.3903
2024  3  1  3330.8741
2025  3  1  2832.9678
2026  3  1  3005.4195
2027  3  1  3088.0468
2028  3  1  3382.4719
2029  3  1  3369.9608
2030  3  1  2996.3203
2031  3  1  2887.5296
2032  3  1  3398.7194
2033  3  1  2942.1820
2034  3  1  3455.5353
2035  3  1  2947.5131
2036  3  1  2873.8635
2037  3  1  2929.3765
2038  3  1  3332.4936
2039  3  1  3071.4857
2040  3  1  2720.9343
2041  3  1  2595.8398
2042  3  1  3058.5531
2043  3  1   569.2388
2044  3  1   504.2353
2045  3  1   420.2888
