pseudo ref pts
2019       24584.3866  0.5372  0.5815  0.9012  0.8565       15927.0486
2020       27768.7117  0.4440  0.3730  0.9910  0.9981       15177.0440
2021       27132.7229  0.3368  0.3000  1.8441  1.0949       15773.8265
2022       25270.8961  0.2363  0.2892  1.5032  1.2537       15675.0667
2023       31474.5288  0.2859  0.4186  1.7478  1.5388       18204.0485
2024       22685.3427  0.6202  0.4720  0.7235  1.2074       18474.4069
2025       19258.2658  0.6240  0.2616  1.0249  1.2604       16880.0043
2026       11934.6418  0.4993  0.2221  1.1904  0.9441       15605.4431
2027       12254.7022  0.4623  0.2386  1.2900  1.1141       16362.5484
2028        9192.9996  0.5674  0.4268  0.6377  1.0475       17027.7547
2029        8644.8397  0.6793  0.4392  0.8271  1.1300       17154.5983
2030        7999.7639  0.7115  0.3491  1.3134  1.0852       16134.2798
2031        5503.8186  1.0548  0.4420  1.2276  0.7496       15037.0730
2032        6234.5768  0.6697  0.3978  1.1397  0.8387       14513.5730
2033        9610.4251  0.5759  0.5444  0.9166  1.2294       17937.2028
2034        9417.8034  0.8743  0.7214  1.4138  1.1112       18078.5022
2035       10956.4353  0.5636  0.4544  0.9285  1.2443       17382.8346
2036        9956.8269  0.6668  0.4931  1.5797  1.0107       16553.1292
2037       10654.5603  0.5795  0.4158  0.7105  1.0111       15790.4086
2038        9618.1230  0.6869  0.5248  0.7960  0.8848       15919.9159
2039       12753.9969  0.5555  0.5368  0.5574  1.2431       18015.6513
2040        8168.9129  1.1596  0.5359  0.7959  0.8846       16352.7950
2041        8514.4041  1.0682  0.3622  2.2345  1.1203       16889.5315
2042        7208.7711  0.7204  0.3408  4.2210  0.9382       16723.0332
2043       11539.7948  0.1667  0.3413  3.1787  1.1975       16770.2079
2044       13120.1405  0.1583  0.3581  0.7557  1.1908       16402.2967
2045       14600.9765  0.1098  0.2693  0.2215  1.2357       15749.8101
