Year Ft Rg C
2019  3  1  3818.0321
2020  3  1  2460.4220
2021  3  1  1989.6614
2022  3  1  3022.3388
2023  3  1  3920.5676
2024  3  1  5664.1911
2025  3  1  5936.8176
2026  3  1  4418.2221
2027  3  1  3628.1135
2028  3  1  1368.0491
2029  3  1  1539.1830
2030  3  1  1579.3825
2031  3  1  2099.2517
2032  3  1  2623.5073
2033  3  1  3375.1654
2034  3  1  2645.4446
2035  3  1  3318.8419
2036  3  1  4926.3733
2037  3  1  3942.6694
2038  3  1  6681.7514
2039  3  1  5320.8355
2040  3  1  3192.2810
2041  3  1  4914.8220
2042  3  1  6943.5541
2043  3  1  6938.3926
2044  3  1  6134.5371
2045  3  1  4416.3765
