pseudo ref pts
2019       33224.3203  0.2440  0.2437  0.9757  1.0135       29376.3900
2020       36375.7193  0.2027  0.2729  1.1015  1.1309       30610.0961
2021       27233.8442  0.2762  0.4159  1.4557  0.9199       31085.8625
2022       30207.1611  0.4461  0.5747  1.2432  0.9342       32003.9855
2023       37944.0676  0.2717  0.3974  1.4251  1.0961       33343.8325
2024       33400.9786  0.4499  0.5207  0.5632  0.9576       34593.0562
2025       36077.8588  0.5804  0.6939  0.6298  0.9821       38387.4614
2026       40374.1529  0.4240  0.4149  0.4023  1.2061       39262.6642
2027       15622.0676  1.0309  0.4850  0.4956  0.5841       35154.5160
2028       10837.4069  0.3242  0.4226  1.0114  0.5520       34766.5044
2029       15067.7479  0.2339  0.3652  2.9510  0.7583       36166.8153
2030       19437.5852  0.1969  0.4050  1.9159  0.8279       34223.1297
2031       22036.1271  0.2587  0.5131  1.0280  0.8467       30392.1246
2032       29741.1216  0.2933  0.4372  0.3625  1.0245       30998.3735
2033       38539.3203  0.2149  0.3396  0.9482  1.2024       31267.9291
2034       45749.3444  0.2108  0.2652  1.2455  1.3037       30558.3415
2035       46638.7542  0.2656  0.3440  2.7059  1.2295       30777.7067
2036       47816.6718  0.2872  0.3465  0.8637  1.2153       31371.2859
2037       29161.0101  0.5937  0.5967  0.4184  0.8102       29794.9781
2038       43082.4686  0.5628  0.6160  0.4340  1.1506       33594.4353
2039       30863.9009  0.6024  0.4976  2.5254  0.9686       30249.5099
2040       35474.8263  0.4809  0.4437  2.7744  0.9912       30675.7541
2041       42453.9338  0.3318  0.4694  3.0192  1.0414       31270.4902
2042       37582.8955  0.4041  0.4440  0.0697  0.9403       28527.8546
2043       26464.9024  0.5213  0.4768  0.1045  0.6966       28063.1491
2044       30938.7003  0.3519  0.4090  0.1583  0.7422       29593.5168
2045       34109.6699  0.2870  0.3381  1.9013  0.8732       30476.8942
