Year Ft Rg C
2019  3  1  2949.1793
2020  3  1  3172.1333
2021  3  1  2401.1350
2022  3  1  2317.3909
2023  3  1  2504.9042
2024  3  1  1758.2348
2025  3  1  2286.3270
2026  3  1   719.6692
2027  3  1  1081.8347
2028  3  1  1801.4810
2029  3  1  1629.0702
2030  3  1  1983.4337
2031  3  1  2024.1742
2032  3  1  1413.9335
2033  3  1  1296.5622
2034  3  1  1340.9235
2035  3  1  1274.1560
2036  3  1   884.2659
2037  3  1   970.6943
2038  3  1  2265.3325
2039  3  1  1357.1968
2040  3  1   956.5044
2041  3  1  1473.8389
2042  3  1  1390.7319
2043  3  1  1201.5244
2044  3  1  1218.5578
2045  3  1  1370.9065
