pseudo ref pts
2019       28096.0895  0.3453  0.3549  1.0429  0.9452       15784.2918
2020       22069.8328  0.2782  0.2883  0.9025  0.7342       15502.0936
2021       16335.1163  0.3536  0.3005  0.5472  0.5914       13057.6176
2022       22468.2772  0.2004  0.3323  0.5679  0.8790       15880.5048
2023       28762.7052  0.1739  0.3144  0.8056  1.2405       17947.7728
2024       23228.4405  0.3475  0.3403  1.3036  1.1643       17525.4286
2025       11332.7491  0.9056  0.4508  2.7806  0.7160       15641.1613
2026       14962.5214  0.1984  0.3532  4.6282  1.0446       17670.1262
2027       18596.9168  0.1696  0.3308  2.5157  1.1781       16232.0189
2028       24022.1124  0.1637  0.2510  0.8385  1.4805       16006.6220
2029       18874.9108  0.2290  0.2987  0.5021  1.1768       14563.3734
2030       23043.8942  0.2228  0.3215  0.8933  1.1426       15553.0483
2031       25094.7209  0.2209  0.2894  0.9662  1.1419       15592.6988
2032       26688.0618  0.2343  0.3944  1.4993  1.2433       18621.2726
2033       28348.5863  0.2436  0.3863  0.7562  1.3530       18491.8089
2034       20682.2331  0.4967  0.3889  2.3439  1.0732       16383.2169
2035       11938.3201  0.9475  0.4679  1.3098  0.6939       15151.8265
2036       10170.6246  0.3904  0.4637  1.6992  0.6122       14389.4981
2037       13595.4569  0.2834  0.5372  0.4916  0.7851       17835.4128
2038       13301.7294  0.3451  0.3813  0.5429  0.7804       15882.5250
2039       16174.4552  0.2598  0.3155  0.7834  0.9433       16183.5651
2040       21279.1872  0.2272  0.3467  1.4475  1.1911       15590.0247
2041       21218.7276  0.2399  0.3987  0.7338  1.2377       15490.0598
2042       17040.4741  0.4054  0.3651  0.6450  1.0192       15265.9710
2043       18111.0362  0.4856  0.3644  1.7400  1.1737       16050.5982
2044       17104.8880  0.4747  0.4198  2.6919  1.1985       15587.7291
2045       13083.2146  0.4494  0.3902  1.5241  0.9176       15544.3735
