Year Ft Rg C
2019  3  1  3121.2796
2020  3  1  2296.6389
2021  3  1  2931.3338
2022  3  1  4229.0835
2023  3  1  4315.4887
2024  3  1  2727.0304
2025  3  1  2694.7402
2026  3  1  4087.9159
2027  3  1  3679.1133
2028  3  1  2768.8899
2029  3  1  4955.6701
2030  3  1  3472.6307
2031  3  1  4285.6618
2032  3  1  3218.3586
2033  3  1  3288.2043
2034  3  1  3347.5174
2035  3  1  3557.4553
2036  3  1  4186.7020
2037  3  1  5253.3032
2038  3  1 13347.0538
2039  3  1  6842.3903
2040  3  1  2398.4396
2041  3  1  2305.2158
2042  3  1  1287.8778
2043  3  1  1361.0869
2044  3  1   535.2729
2045  3  1   806.0589
