pseudo ref pts
2019       22563.7268  0.3858  0.4118  0.9773  0.9462       29778.7628
2020       24704.9640  0.3132  0.4992  1.0561  1.0264       31863.6934
2021       26834.0822  0.2735  0.5005  0.9533  1.0711       33335.1410
2022       40676.3949  0.2963  0.4298  1.1958  1.5083       35444.6433
2023       25468.7521  0.4215  0.4208  1.3037  0.9801       30185.5754
2024       23895.4243  0.4164  0.4463  1.4869  0.8757       31183.4654
2025       30943.6867  0.2699  0.3453  1.8553  1.0880       31541.2395
2026       31354.3921  0.2819  0.3320  1.0079  1.0345       32109.6817
2027       27848.6952  0.3816  0.4261  0.9232  0.9214       30376.1045
2028       25776.1037  0.5630  0.6548  0.8268  0.7959       30269.1486
2029       15559.3541  0.6070  0.5847  0.4771  0.4926       28367.9358
2030       18384.6100  0.4302  0.5501  0.4449  0.5459       29703.0246
2031       19022.5441  0.3344  0.4521  0.6252  0.5592       28713.9532
2032       14467.1568  0.4051  0.5498  0.4771  0.4550       28531.5526
2033       17171.8456  0.3831  0.5049  0.6702  0.5291       29160.5849
2034       22226.0804  0.2741  0.4745  1.4074  0.6612       31334.6200
2035       24821.2846  0.2886  0.4593  1.7243  0.6196       31135.1198
2036       33317.9063  0.3074  0.5647  1.9558  0.7370       31837.7087
2037       72716.4947  0.2081  0.6126  0.5707  1.4883       38080.5020
2038      107749.8942  0.5141  0.4388  0.8176  2.0451       38534.7691
2039       49381.3009  0.8910  0.4349  0.6414  1.2086       34957.4949
2040       21124.7661  0.9203  0.5070  0.7977  0.7502       30794.4220
2041       21951.1753  0.8479  0.4148  0.8465  0.8798       31712.8775
2042       11290.8272  0.4510  0.4139  0.3478  0.6655       29147.0926
2043       12660.1785  0.4512  0.3878  0.8828  0.8454       30566.5493
2044       14234.6283  0.1412  0.3048  1.2336  0.9871       30903.6403
2045       14903.8588  0.1515  0.3413  1.5191  0.9667       30563.3105
