Year Ft Rg C
2019  3  1  3354.3014
2020  3  1  1433.3800
2021  3  1  2018.2843
2022  3  1  2577.9437
2023  3  1  3108.9245
2024  3  1  5246.2866
2025  3  1  4439.0230
2026  3  1  4282.2015
2027  3  1  4667.3874
2028  3  1  4337.5120
2029  3  1  3830.1562
2030  3  1  3677.0516
2031  3  1  2584.1143
2032  3  1  2391.1449
2033  3  1  2776.6039
2034  3  1  2423.5602
2035  3  1   242.8627
2036  3  1   150.1414
2037  3  1   558.5239
2038  3  1  2214.7430
2039  3  1  2547.5135
2040  3  1  6747.8893
2041  3  1  5896.4871
2042  3  1  6540.9061
2043  3  1  3806.5468
2044  3  1  4168.4648
2045  3  1  4461.9926
