pseudo ref pts
2019       17657.5215  0.3798  0.2926  0.6900  0.6659       26493.4085
2020       19212.9878  0.2173  0.3806  0.7180  0.7250       26309.8847
2021       19569.6560  0.1892  0.3629  1.6032  0.7368       26761.5019
2022       41730.1554  0.1498  0.2634  1.7272  1.2458       28226.9214
2023       33713.3461  0.2298  0.4027  1.5817  0.9247       27942.5871
2024       37571.4568  0.3423  0.3913  0.5359  0.9509       27576.5881
2025       52894.3254  0.2001  0.2657  1.0381  1.2393       28240.2726
2026       74331.2005  0.1519  0.2357  1.2175  1.6231       30467.2175
2027       71075.5210  0.1677  0.2476  1.2922  1.4900       29294.7965
2028       80792.9486  0.1919  0.2784  1.4234  1.6975       33054.9397
2029       80697.0518  0.2422  0.3821  1.0756  1.6080       37465.2098
2030       71499.3183  0.4040  0.3494  0.6297  1.5764       35683.7326
2031       40092.7876  0.9203  0.4852  0.4939  1.1479       35527.1926
2032       19112.7850  1.5693  0.5653  0.5772  0.8022       34937.9123
2033        8338.0891     NaN  0.5407  0.9783  0.5279       31506.9821
2034        3086.2795  2.2157  0.3744  2.0845  0.4550       28930.8441
2035        6146.5477  0.2665  0.3375  4.2880  0.9403       27555.4715
2036       17403.6003  0.0591  0.2408  4.3507  1.5961       29322.5116
2037       21938.1476  0.0598  0.2419  1.9834  1.5185       27396.0756
2038       30006.6587  0.1295  0.2671  0.5426  1.3074       27089.2079
2039       44590.1373  0.1122  0.3262  0.6038  1.2407       29182.0639
2040       42521.0963  0.3361  0.4272  0.2554  0.8663       29363.4125
2041       47815.2790  0.3028  0.4203  0.3983  0.9133       28834.3255
2042       49415.3456  0.3519  0.3026  0.9361  0.9286       27679.7137
2043       45658.3493  0.3104  0.3122  2.1353  1.0227       30966.6977
2044       36752.0624  0.2335  0.2841  1.9184  0.8105       28826.9387
2045       34603.4220  0.2787  0.3236  0.5635  0.8146       28632.6363
