Year Ft Rg C
2019  3  1  3940.0131
2020  3  1  3945.6255
2021  3  1  3549.0386
2022  3  1  3557.3203
2023  3  1  3298.0156
2024  3  1  2611.7959
2025  3  1  2084.5202
2026  3  1  1302.6331
2027  3  1  1176.3379
2028  3  1  1347.4130
2029  3  1  2062.1335
2030  3  1  3459.6635
2031  3  1  4085.3760
2032  3  1  3528.7721
2033  3  1  2278.7671
2034  3  1  1875.1322
2035  3  1  1472.2627
2036  3  1  1044.6728
2037  3  1  2218.6463
2038  3  1  2844.4296
2039  3  1  3112.7995
2040  3  1  2997.0156
2041  3  1  2245.2678
2042  3  1  2177.5882
2043  3  1  2180.2786
2044  3  1  3065.7144
2045  3  1  5460.2465
