pseudo ref pts
2019       30536.0883  0.2615  0.3530  1.0035  1.0723       32727.5397
2020       28657.7571  0.2296  0.3163  0.8862  1.0774       31903.5829
2021       25136.4849  0.2572  0.3474  0.5822  0.8911       31129.9607
2022       36222.3997  0.1661  0.2861  0.7166  1.2899       31848.4732
2023       42974.1268  0.1565  0.3045  0.6441  1.6103       34394.8405
2024       33873.5420  0.2987  0.3273  0.8008  1.2417       34215.2569
2025       22588.5029  0.3502  0.3016  1.0102  1.0638       33002.4385
2026       16420.0727  0.2485  0.3318  1.9216  0.8021       33911.0958
2027       14456.5740  0.2892  0.3608  3.2344  0.7071       32802.8125
2028       22004.2490  0.1342  0.2794  2.2833  0.9818       30326.2444
2029       32809.1025  0.1200  0.2748  1.4773  1.2551       29484.3149
2030       48669.5661  0.2129  0.3992  0.4065  1.6676       32124.9389
2031       50502.8553  0.1868  0.3734  0.3926  1.6024       33653.3967
2032       43424.4569  0.3750  0.4521  0.5428  1.3267       37239.1832
2033       41467.4940  0.3039  0.2955  1.8139  1.4231       35686.6584
2034       27194.9559  0.2608  0.2367  2.6223  1.0507       33026.9025
2035       18203.1854  0.3573  0.2417  2.3496  0.7492       30565.4278
2036       16932.5322  0.1434  0.3192  1.4977  0.6962       30111.7932
2037       44204.7251  0.0816  0.2434  1.1635  1.5281       34080.7154
2038       64686.1739  0.1657  0.3232  0.8245  2.0479       36202.8828
2039       71235.4469  0.1718  0.3823  1.0866  2.1769       39810.1079
2040       60697.5104  0.4200  0.3817  1.7506  1.7643       40497.5748
2041       32257.9990  0.7499  0.3630  1.5394  1.0523       33956.9866
2042       25458.5178  0.5091  0.5575  2.5960  1.0898       34938.5693
2043       37263.8132  0.3402  0.4869  3.8645  1.4480       37183.2616
2044       32207.7746  0.7950  0.7323  2.8485  1.0181       32062.5815
2045       30441.0465  0.8049  0.7412  0.8505  0.8485       29983.6837
