Year Ft Rg C
2019  3  1  2949.1793
2020  3  1  3332.9832
2021  3  1  2953.1869
2022  3  1  2841.1996
2023  3  1  3243.0425
2024  3  1  1888.6824
2025  3  1  2020.3601
2026  3  1  1801.1024
2027  3  1  2605.6821
2028  3  1  4503.8916
2029  3  1  4123.1404
2030  3  1  3506.0202
2031  3  1  3012.0936
2032  3  1  2103.6478
2033  3  1  2460.2437
2034  3  1  3858.8632
2035  3  1  2936.3477
2036  3  1  2417.5710
2037  3  1  2536.2319
2038  3  1  4968.6349
2039  3  1  3520.1329
2040  3  1  2585.6469
2041  3  1  4217.1017
2042  3  1  4176.3217
2043  3  1  2806.9392
2044  3  1  2084.0865
2045  3  1  2738.5458
