pseudo ref pts
2019       28096.0895  0.3448  0.3549  1.0429  0.9452       31569.4417
2020       22847.3374  0.2581  0.2883  0.9025  0.7601       30968.6917
2021       18638.2658  0.3198  0.3005  0.5472  0.6317       26113.2764
2022       28656.7804  0.1696  0.3323  0.5680  0.9528       31743.4582
2023       40403.3593  0.1243  0.3192  0.8061  1.3733       35788.4480
2024       36492.9704  0.2604  0.3403  1.3050  1.2953       35057.5411
2025       20584.1866  0.5489  0.4474  2.7853  0.8047       31262.4754
2026       32398.2320  0.1737  0.3560  4.6354  1.2088       35299.5187
2027       39856.8668  0.1530  0.3333  2.5186  1.2899       32433.7852
2028       51290.2541  0.1754  0.2510  0.8387  1.5523       32113.3530
2029       39159.8650  0.2535  0.2987  0.5019  1.1610       29219.9142
2030       46448.6784  0.2193  0.3190  0.8927  1.1202       31176.1227
2031       50511.9824  0.2039  0.2850  0.9657  1.1196       31344.8888
2032       54283.7695  0.2173  0.3944  1.4991  1.2349       37085.5257
2033       58254.5274  0.2388  0.3863  0.7562  1.3615       36891.9161
2034       42469.6007  0.5467  0.3919  2.3447  1.0805       32686.4299
2035       23671.3828  1.0290  0.4679  1.3104  0.6880       30308.5544
2036       19844.2022  0.4463  0.4673  1.6999  0.6018       28718.3050
2037       26240.6691  0.3257  0.5414  0.4917  0.7697       35603.5759
2038       25360.2953  0.3702  0.3813  0.5427  0.7703       31804.2733
2039       30801.9005  0.2989  0.3180  0.7831  0.9355       32302.9311
2040       40101.9540  0.2609  0.3493  1.4471  1.1816       31139.7938
2041       39714.3212  0.2698  0.4049  0.7337  1.2301       30932.7696
2042       31674.2881  0.4463  0.3707  0.6451  1.0109       30500.4566
2043       33342.5036  0.5112  0.3672  1.7406  1.1647       32076.1865
2044       32173.4278  0.4646  0.4166  2.6931  1.2014       31227.4017
2045       25429.2538  0.4363  0.3902  1.5248  0.9330       31098.4465
