Year Ft Rg C
2019  3  1  3189.1172
2020  3  1  2966.8923
2021  3  1  3015.1609
2022  3  1  2582.1020
2023  3  1  2650.1327
2024  3  1  5583.4566
2025  3  1  3126.6359
2026  3  1  1535.2302
2027  3  1  1838.4234
2028  3  1  2167.6887
2029  3  1  2350.0419
2030  3  1  2199.2167
2031  3  1  1864.7161
2032  3  1  2113.4592
2033  3  1  2230.2201
2034  3  1  2972.5234
2035  3  1  2181.2026
2036  3  1  2366.2754
2037  3  1  2357.7954
2038  3  1  3786.0205
2039  3  1  3048.3372
2040  3  1  2477.5832
2041  3  1  1913.8072
2042  3  1   953.2046
2043  3  1  1497.5107
2044  3  1  2515.0781
2045  3  1  2763.5002
