pseudo ref pts
2019       24584.3866  0.5365  0.5815  0.9012  0.8565       31854.9689
2020       28756.9987  0.3303  0.3674  0.9910  1.0336       30453.0901
2021       32971.1911  0.2327  0.2955  1.8447  1.2046       31632.4325
2022       38008.8623  0.1906  0.2870  1.5039  1.4347       31286.2844
2023       54014.4093  0.1926  0.4122  1.7491  1.8197       36508.4386
2024       44299.4562  0.5226  0.4720  0.7244  1.4138       36897.7368
2025       40936.0702  0.3750  0.2596  1.0267  1.4179       33725.3113
2026       30191.9200  0.2199  0.2139  1.1930  1.0746       31296.8772
2027       34003.0512  0.1894  0.2315  1.2929  1.2498       32684.9846
2028       28646.7394  0.2409  0.4111  0.6396  1.1855       34026.2707
2029       28919.8941  0.2711  0.4230  0.8300  1.2402       34343.0809
2030       27972.0105  0.3166  0.3337  1.3176  1.1716       32372.5276
2031       17897.8931  0.4882  0.4225  1.2301  0.7576       30096.2594
2032       19436.8942  0.2608  0.3774  1.1400  0.8177       29086.5397
2033       29779.7856  0.2514  0.5206  0.9157  1.1812       35817.6707
2034       28525.7967  0.5262  0.7000  1.4115  1.0857       36061.4461
2035       31772.3907  0.3432  0.4375  0.9268  1.2153       34760.5498
2036       27753.8654  0.4262  0.4749  1.5774  0.9760       33156.6360
2037       28633.1689  0.3817  0.4004  0.7096  0.9716       31636.0106
2038       25164.6889  0.4865  0.5093  0.7955  0.8549       31887.1704
2039       33180.3008  0.3622  0.5249  0.5571  1.2142       35952.5347
2040       21946.9204  0.7287  0.5239  0.7961  0.8833       32726.6380
2041       24040.7901  0.5394  0.3514  2.2378  1.1476       33801.5276
2042       20008.3132  0.2386  0.3208  4.2294  0.9562       33341.1306
2043       30539.9175  0.1913  0.3439  3.1836  1.1807       33486.8676
2044       30833.0630  0.2235  0.3637  0.7555  1.1165       32810.9703
2045       31339.6107  0.1700  0.2756  0.2209  1.1360       31612.2843
