Year Ft Rg C
2019  3  1  3115.2724
2020  3  1  1906.2897
2021  3  1  1734.5520
2022  3  1  2133.1136
2023  3  1  2224.3106
2024  3  1  2219.0795
2025  3  1  1061.2684
2026  3  1  1407.0199
2027  3  1  1753.9927
2028  3  1  1418.6506
2029  3  1  2044.1050
2030  3  1  2249.9443
2031  3  1  1955.1788
2032  3  1  1831.5147
2033  3  1  2141.8044
2034  3  1  2463.4133
2035  3  1   615.1539
2036  3  1   935.6280
2037  3  1  1821.9510
2038  3  1  5459.1651
2039  3  1  3741.2672
2040  3  1  3837.1880
2041  3  1  4633.7782
2042  3  1  3871.9398
2043  3  1  4603.8735
2044  3  1  4305.3678
2045  3  1   230.7828
