pseudo ref pts
2019       11330.6137  0.4788  0.2742  0.5149  0.4469       12237.3453
2020        8132.7504  0.2743  0.3347  0.3875  0.3301       11849.0018
2021       12693.5850  0.1627  0.2440  0.3910  0.4849       12277.4863
2022       10405.9709  0.3028  0.3380  0.3102  0.3948       11437.2853
2023       17788.7406  0.2309  0.3581  0.5357  0.7202       14154.5253
2024       29031.7685  0.2169  0.2945  2.9283  1.2349       15791.2413
2025       42769.2852  0.1675  0.3089  5.8212  1.7507       18145.0109
2026       26465.5335  0.3597  0.2950  5.8675  1.0810       16151.2171
2027       24280.3588  0.3535  0.2950  1.4407  1.0805       15543.3680
2028       26197.1894  0.1944  0.3244  1.2748  1.1595       16304.4081
2029       43239.1818  0.1513  0.3364  0.7075  1.8347       17773.9165
2030       28083.4251  0.3457  0.3798  0.4186  1.2449       16223.7788
2031       23177.7960  0.4403  0.3295  0.3017  1.0719       15294.6172
2032       15116.6101  0.5729  0.4519  0.4306  0.8466       14700.8402
2033        9182.4270  1.0442  0.5415  0.6147  0.6100       14375.0335
2034       14505.4347  0.4991  0.4734  5.8019  1.1249       17072.9890
2035       21001.5759  0.1982  0.4172  7.0224  1.5108       17052.9867
2036       24032.2933  0.3522  0.6097  4.5612  1.4209       16772.6623
2037       41524.5726  0.2142  0.5571  0.8924  2.2493       19484.1060
2038       39014.9760  0.6111  0.5230  0.5951  1.8807       18425.2164
2039       29829.3531  0.6939  0.4625  0.5643  1.3517       18806.6970
2040       18527.4574  0.6225  0.3601  0.4222  1.0921       17099.7310
2041        8627.0211  2.0793  0.3430  0.5044  0.6616       15534.1925
2042        3874.5024  2.0583  0.3768  0.5906  0.4901       15879.5522
2043        5069.2269  2.2418  0.3783  2.7644  0.7595       17589.6721
2044        6915.6201  0.8711  0.3177  3.3994  1.0434       16981.4975
2045       11212.2662  0.0904  0.3192  2.8281  1.4048       15768.7641
