Year Ft Rg C
2019  3  1  3626.0428
2020  3  1  1917.8618
2021  3  1  2172.5566
2022  3  1  1519.3344
2023  3  1  2059.2179
2024  3  1  2941.6457
2025  3  1  2956.7908
2026  3  1  4245.5133
2027  3  1  3408.9638
2028  3  1  3170.2674
2029  3  1  2112.5645
2030  3  1  1923.7435
2031  3  1  1496.1240
2032  3  1  1742.5639
2033  3  1  1624.0738
2034  3  1  1042.1318
2035  3  1  1180.6384
2036  3  1  1295.4258
2037  3  1  1758.8824
2038  3  1  2732.7075
2039  3  1  2796.0273
2040  3  1  4226.6959
2041  3  1  3277.0844
2042  3  1  3573.1143
2043  3  1  3881.0596
2044  3  1  2733.9280
2045  3  1  3699.9674
