pseudo ref pts
2019       19843.4558  0.6123  0.6667  0.8933  0.8944       33064.3692
2020       19428.7208  0.3141  0.4343  0.8136  0.8528       31507.3619
2021       16107.6082  0.4449  0.4885  0.4062  0.6603       28295.2346
2022       19467.1581  0.2565  0.4595  1.2890  0.8178       29222.9898
2023       19465.9982  0.2892  0.4815  1.1935  0.7153       30799.2342
2024       25746.4408  0.2658  0.3675  2.2810  0.7689       28045.3170
2025       18019.7480  0.3272  0.3531  0.2430  0.4968       24801.1721
2026       20754.6057  0.2574  0.3916  0.1987  0.5317       26907.5556
2027       31814.3991  0.1968  0.3599  0.1195  0.7891       28586.4777
2028       33349.5756  0.3281  0.4626  0.8056  0.9082       30550.3502
2029       27958.1259  0.4452  0.5195  1.2139  0.8851       30263.6190
2030       30261.9924  0.4124  0.4136  4.7210  1.0453       32131.9745
2031       23321.4838  0.6550  0.6547  1.2937  0.9456       33904.7191
2032       22109.7091  0.5415  0.5365  1.3266  0.9693       33455.5368
2033       18188.0045  0.4745  0.3563  0.6422  0.8710       31369.5801
2034       20193.1197  0.2663  0.3982  1.2770  1.1010       32296.1570
2035       22035.9745  0.3033  0.4916  2.8657  1.2807       32478.5745
2036       23169.8188  0.3017  0.3114  3.0083  1.1608       30155.6955
2037       23608.4674  0.2894  0.3387  2.3651  1.0392       27914.5864
2038       23509.8729  0.2634  0.3758  0.4331  0.9694       28235.7997
2039       28990.4774  0.2058  0.3742  0.4765  1.1143       32605.3407
2040       25559.8597  0.4305  0.6276  0.4633  0.9245       34767.4760
2041       31022.2830  0.4958  0.7113  1.2956  1.0568       35130.8131
2042       39418.6443  0.5687  0.5601  2.8905  1.4284       39207.1555
2043       26525.7359  0.9401  0.5927  5.1325  1.1674       33978.1068
2044       46819.5484  0.2591  0.4033  5.3045  1.7938       36847.1196
2045       57026.8460  0.1869  0.3509  3.8168  1.8370       35609.2893
