Year Ft Rg C
2019  3  1  3165.4917
2020  3  1  1390.5838
2021  3  1  1880.3242
2022  3  1  3365.9788
2023  3  1  3031.8638
2024  3  1  4930.2411
2025  3  1  5130.0495
2026  3  1  6352.4461
2027  3  1  5362.6899
2028  3  1  8473.5241
2029  3  1  8286.9999
2030  3  1  7632.7054
2031  3  1  9409.5867
2032  3  1 12325.9140
2033  3  1  9942.0320
2034  3  1 11161.2441
2035  3  1 10594.7639
2036  3  1 11489.0707
2037  3  1  9176.4167
2038  3  1  9201.0567
2039  3  1  8243.0011
2040  3  1  6652.7202
2041  3  1  6349.0132
2042  3  1  6873.0318
2043  3  1  8038.5590
2044  3  1  7519.0175
2045  3  1  9740.3595
