pseudo ref pts
2019       17180.1141  0.5507  0.4495  0.6532  0.5738       84331.7291
2020       25778.6935  0.1767  0.3914  0.8088  0.8313       91753.3868
2021       35103.1902  0.1298  0.4195  0.8928  0.9851       93488.5481
2022       56049.7317  0.1471  0.3419  0.9660  1.2406       90996.6267
2023       64943.1101  0.1620  0.4517  0.9730  1.2258       93694.0867
2024       66032.8008  0.2069  0.3496  0.7342  0.9818       94879.5652
2025       63700.7065  0.2487  0.3956  0.6206  0.8057       94119.7778
2026       59220.9186  0.2590  0.4473  0.5276  0.6811       93418.6057
2027       97673.0640  0.1333  0.2951  0.6942  1.0596       94279.8303
2028       79960.1582  0.3419  0.4588  1.5457  0.8812       92440.7484
2029       61915.9193  0.4808  0.5017  1.4676  0.6566       87557.2505
2030       54490.6437  0.3392  0.3607  1.3648  0.5247       74596.6572
2031       66895.5461  0.2954  0.3726  0.2651  0.5895       74104.0973
2032       90593.2098  0.3216  0.4905  0.1154  0.7354       84258.0828
2033       75288.3856  0.3072  0.4622  0.1916  0.5980       84075.0242
2034       72890.9549  0.3149  0.3570  0.6495  0.6318       85372.4553
2035       70901.1575  0.3731  0.4698  2.0636  0.6624       91288.0047
2036       74140.0101  0.4348  0.6068  0.9188  0.7539       93561.1341
2037       54916.0398  0.5630  0.6712  0.6787  0.6003       93835.1052
2038       52345.7044  0.3676  0.4815  0.6057  0.6110       98498.6925
2039       35739.2147  0.3358  0.3755  0.6325  0.4550       88519.2763
2040       36965.8810  0.2631  0.4668  0.4041  0.4610       86551.1352
2041       58252.3544  0.1554  0.3552  0.7334  0.6845       92940.6243
2042       50256.1057  0.2587  0.3942  0.6317  0.5710       86678.6464
2043       83210.0512  0.1976  0.3711  2.2759  0.9495       89520.5411
2044       85574.2978  0.2514  0.3750  1.1901  0.8597       91528.5888
2045      122631.3997  0.2191  0.4032  1.0080  1.0703      103133.6969
