Year Ft Rg C
2019  3  1  3301.2265
2020  3  1  1204.9341
2021  3  1  1788.1741
2022  3  1  2039.1074
2023  3  1  3409.3190
2024  3  1 11287.4913
2025  3  1 12503.0977
2026  3  1 14464.5707
2027  3  1 11372.0312
2028  3  1 12764.7059
2029  3  1 10300.0667
2030  3  1 11813.4447
2031  3  1  9068.0416
2032  3  1  8362.5822
2033  3  1 10178.7722
2034  3  1  8264.7795
2035  3  1  8289.9133
2036  3  1 10497.5963
2037  3  1  7995.6985
2038  3  1  8960.3788
2039  3  1  8366.1767
2040  3  1  7782.8783
2041  3  1 10565.1739
2042  3  1 12643.9427
2043  3  1 10557.4287
2044  3  1 13597.9734
2045  3  1 12836.3600
