pseudo ref pts
2019       23405.0928  0.3707  0.3148  0.8971  0.9255       83558.5242
2020       23723.2946  0.1316  0.2583  0.8538  0.9745       79945.0647
2021       32704.5555  0.1433  0.2600  2.8736  0.9887       75864.3972
2022       85178.6658  0.0855  0.2309  2.2500  1.5166       78085.9698
2023      144522.5358  0.0736  0.2528  2.4668  1.7623       79896.2429
2024       97458.2760  0.3919  0.3942  0.1125  0.9438       72879.4069
2025       86845.7527  0.4620  0.3755  0.2274  0.6589       70493.9251
2026       99956.1421  0.4305  0.5214  0.3831  0.6785       83267.6215
2027      145148.8552  0.2456  0.3323  1.5906  0.9291       85169.9725
2028      156583.3744  0.2558  0.3210  0.9524  1.0020       88129.8544
2029      128392.6293  0.2710  0.3226  0.8390  0.9764       93014.6918
2030       71195.1471  0.3931  0.3069  0.8311  0.6392       83399.3059
2031      101347.3587  0.2837  0.2896  1.8200  0.9374       90289.9638
2032      125415.8111  0.1833  0.3557  1.4217  1.2566      105892.4324
2033      121727.8939  0.1898  0.3266  1.0128  1.1999       99622.4920
2034       89257.1240  0.3405  0.3373  0.4388  0.8898       85243.8681
2035       80946.0427  0.3458  0.3210  0.9824  0.8087       87841.2871
2036       97624.4658  0.2384  0.2837  0.9576  0.9316       84963.5023
2037       55311.4073  0.3707  0.3081  0.7075  0.5607       70386.2863
2038       64638.8290  0.2064  0.2872  0.7055  0.7058       76226.3552
2039       42619.5240  0.2789  0.2621  0.6006  0.4529       69016.7079
2040       54015.3694  0.1630  0.2480  0.6975  0.5366       74240.2673
2041       79244.7750  0.1569  0.3047  0.7344  0.7611       81444.1459
2042      118428.4376  0.1577  0.2651  0.8787  1.0663       88375.1083
2043      139310.3294  0.1958  0.3403  1.2363  1.1633       88657.2893
2044      146651.7908  0.2814  0.3547  0.8431  1.1349       95066.4597
2045      103689.8486  0.3819  0.4460  0.6996  0.8631       90213.5129
