Year Ft Rg C
2019  3  1  3412.0681
2020  3  1  2494.8073
2021  3  1  2909.6228
2022  3  1  3869.7794
2023  3  1  4252.9638
2024  3  1  3839.4144
2025  3  1  2615.9582
2026  3  1  2671.9315
2027  3  1  1729.5845
2028  3  1  2652.3117
2029  3  1  2313.1150
2030  3  1  1169.1897
2031  3  1  2155.4710
2032  3  1  6128.9354
2033  3  1  4822.4108
2034  3  1  3220.5264
2035  3  1  3458.9163
2036  3  1  2452.6682
2037  3  1  2330.7938
2038  3  1  2556.7223
2039  3  1  2134.4245
2040  3  1  2634.2661
2041  3  1  2653.4180
2042  3  1  2532.5017
2043  3  1  2100.7567
2044  3  1  3429.7047
2045  3  1  3031.3263
