pseudo ref pts
2019       18838.0581  0.5176  0.4417  0.6459  0.7661       26850.7793
2020       24186.3237  0.2668  0.4008  0.8060  1.0151       27645.2446
2021       22684.8087  0.2555  0.3878  1.0899  0.9628       25768.8220
2022       30848.9921  0.3610  0.4912  1.1456  1.1101       30928.0089
2023       41306.1167  0.2213  0.3600  1.6692  1.4278       30731.5092
2024       37411.8879  0.2968  0.3384  0.6425  1.1831       31355.3104
2025       50440.4915  0.2360  0.3371  1.0273  1.5429       35269.1001
2026       28083.6820  0.3916  0.3588  0.5454  0.9660       31257.0750
2027       28559.2059  0.5768  0.4715  0.7768  1.0220       32753.5863
2028       19401.3280  0.3947  0.3155  1.0203  0.7876       30065.7245
2029       29147.8982  0.3115  0.3361  3.8964  1.3241       35943.7992
2030       30509.9413  0.2295  0.3715  3.3467  1.2330       32302.9119
2031       32454.0677  0.2087  0.4711  1.5399  1.1282       32484.1346
2032       41048.1412  0.3148  0.4470  0.2474  1.2919       32720.4073
2033       42792.2283  0.2380  0.3094  0.4393  1.2249       32072.8752
2034       53794.0655  0.1542  0.2416  0.7830  1.5387       32413.7103
2035       32293.3642  0.2016  0.1924  1.4580  0.9084       27025.5581
2036       27623.8123  0.1325  0.2054  0.9217  0.8250       26380.5640
2037       22869.4683  0.1917  0.2839  0.6667  0.7224       26126.0148
2038       34754.2877  0.1495  0.2601  0.9463  1.0731       28471.9471
2039       37757.2139  0.1241  0.2589  1.1557  1.1244       29941.5672
2040       34313.0876  0.2175  0.3189  0.8418  1.0583       30163.2661
2041       32775.3777  0.1840  0.2167  1.1209  0.9658       28081.1825
2042       35473.5945  0.1553  0.2910  0.9319  1.1380       31987.8009
2043       29339.7129  0.2314  0.3957  0.8562  0.9180       30093.7350
2044       32973.5119  0.3563  0.4349  0.8635  1.0709       31837.8579
2045       30414.8083  0.5490  0.6798  1.0810  1.0266       34906.2839
