Year Ft Rg C
2019  3  1  3380.9967
2020  3  1  2386.7843
2021  3  1  2178.3162
2022  3  1  2162.3007
2023  3  1  2067.3450
2024  3  1  2223.3794
2025  3  1  1747.6999
2026  3  1  1817.3076
2027  3  1  2059.0140
2028  3  1  1792.8783
2029  3  1  1797.7184
2030  3  1   848.0764
2031  3  1   880.1768
2032  3  1  2440.1614
2033  3  1  2116.2617
2034  3  1  2047.2346
2035  3  1  2645.5715
2036  3  1  2288.6489
2037  3  1  2306.1653
2038  3  1  1898.9156
2039  3  1  1780.4205
2040  3  1  2007.8613
2041  3  1  2087.5625
2042  3  1  2228.0608
2043  3  1  1958.6856
2044  3  1  2494.0959
2045  3  1  2183.9548
