pseudo ref pts
2019       15420.8807  0.5935  0.5044  0.6556  0.5967       13917.2283
2020       15787.1516  0.4760  0.5245  0.6441  0.5894       13663.8054
2021       16890.2169  0.3606  0.4158  0.6829  0.6171       13347.6160
2022       13947.4795  0.4377  0.4963  0.7157  0.5817       13849.1502
2023       16470.7120  0.4312  0.5061  0.8175  0.6805       14761.5688
2024       20179.9536  0.3375  0.4293  1.4987  0.8783       16738.5732
2025       27550.1665  0.1984  0.2328  1.3956  1.2276       16362.1333
2026       27266.6661  0.1953  0.2358  1.2983  1.2845       15477.9811
2027       18248.4289  0.2983  0.2608  0.4324  1.0176       13501.7529
2028       22382.3225  0.2002  0.1924  0.8654  1.3400       14244.6351
2029       12319.9990  0.4779  0.3854  1.8474  0.8683       14499.2148
2030       15610.4491  0.2344  0.2918  3.1850  1.0255       14627.2878
2031       26110.9578  0.1688  0.3621  4.1759  1.4636       16462.7774
2032       20568.4696  0.3858  0.3500  0.8736  1.0733       14346.3406
2033       27635.0857  0.2831  0.3266  0.9578  1.3764       15164.7781
2034       29271.0537  0.2633  0.3646  0.6633  1.3729       16085.5456
2035       21776.7830  0.3787  0.4334  0.6674  0.9846       15000.2163
2036       23802.5004  0.3062  0.3357  0.6612  1.0445       15291.0056
2037       17582.9954  0.3674  0.2828  0.7230  0.8105       12948.9408
2038       22429.8883  0.1641  0.2399  0.4646  1.1134       14734.5355
2039       24319.7833  0.1656  0.2855  0.8407  1.3830       15871.3290
2040       16205.0072  0.4407  0.4695  0.7750  1.0102       16402.0474
2041       13604.9722  0.5196  0.4131  1.4477  0.9357       15722.6899
2042       13411.8137  0.3825  0.4188  1.0236  1.0737       16573.9326
2043       13313.4563  0.4315  0.4683  0.7652  1.2384       17230.7673
2044       12210.1479  0.5179  0.3956  1.2730  1.2621       16642.8348
2045       10418.7654  0.7259  0.4304  4.9068  1.1677       15975.0833
