Year Ft Rg C
2019  3  1  2949.1793
2020  3  1  2120.8610
2021  3  1  2129.9963
2022  3  1  3556.8661
2023  3  1  5298.5949
2024  3  1  5831.1660
2025  3  1  6550.8074
2026  3  1  5230.2112
2027  3  1  8112.6583
2028  3  1 15156.3199
2029  3  1 13948.8865
2030  3  1 16545.8774
2031  3  1 16502.7535
2032  3  1 12333.4841
2033  3  1 11790.5191
2034  3  1 14796.6022
2035  3  1 11780.3853
2036  3  1  8233.0044
2037  3  1 10329.5794
2038  3  1 17730.6373
2039  3  1 11516.1857
2040  3  1  5839.7229
2041  3  1 10061.7375
2042  3  1 12160.3623
2043  3  1  8368.1556
2044  3  1  7052.5443
2045  3  1  8964.2553
