pseudo ref pts
2019       28096.0895  0.3429  0.3549  1.0429  0.9452       94708.3252
2020       25957.2717  0.1582  0.2817  0.9025  0.8635       92924.0142
2021       28086.4875  0.1643  0.2914  0.5473  0.7786       78628.9800
2022       55010.3505  0.1174  0.3273  0.5682  1.1874       95174.5495
2023       89054.8485  0.0875  0.3144  0.8067  1.7182      107679.2750
2024       90024.9202  0.2359  0.3403  1.3062  1.5309      105449.3970
2025       55875.1535  0.4460  0.4474  2.7884  0.9040       93890.1438
2026       96958.4501  0.1641  0.3532  4.6383  1.3383      106121.1323
2027      120620.1452  0.1489  0.3333  2.5194  1.3750       97090.3752
2028      155447.2888  0.1877  0.2510  0.8384  1.6101       96387.0263
2029      116878.3550  0.2746  0.2987  0.5017  1.1614       87745.6050
2030      136627.1995  0.2757  0.3239  0.8922  1.1102       93035.0243
2031      143341.7690  0.2820  0.2894  0.9655  1.0953       93758.8768
2032      147000.0929  0.2768  0.3974  1.4990  1.1957      111732.6962
2033      153997.5649  0.2983  0.3893  0.7562  1.3137      110982.9278
2034      110290.6932  0.6292  0.3919  2.3450  1.0487       98481.1186
2035       62528.5259  1.1563  0.4716  1.3107  0.6823       90831.4764
2036       54562.7230  0.4716  0.4673  1.7003  0.6106       86137.9220
2037       73877.6905  0.3735  0.5455  0.4917  0.7910      106728.5100
2038       71319.3336  0.4038  0.3842  0.5428  0.7867       95425.7415
2039       86784.8742  0.3091  0.3180  0.7831  0.9437       97280.1789
2040      114614.8699  0.2329  0.3467  1.4470  1.1875       93438.0674
2041      117339.2675  0.2400  0.4018  0.7338  1.2506       92799.4911
2042       96303.7399  0.4409  0.3679  0.6452  1.0368       91725.0573
2043      101992.1032  0.5045  0.3644  1.7414  1.1923       96528.3714
2044       98265.4316  0.4840  0.4198  2.6943  1.2146       93210.4822
2045       76468.1752  0.4610  0.3902  1.5255  0.9287       93248.0354
