Year Ft Rg C
2019  3  1  3942.2436
2020  3  1  1682.6618
2021  3  1  2283.2130
2022  3  1  2413.9508
2023  3  1  4941.8783
2024  3  1  4538.1503
2025  3  1  6506.0632
2026  3  1  6726.2898
2027  3  1  7828.9713
2028  3  1  6808.2950
2029  3  1  7393.3844
2030  3  1  7091.2182
2031  3  1  5300.8097
2032  3  1  5831.7285
2033  3  1  6569.4834
2034  3  1  7418.1705
2035  3  1 10100.2735
2036  3  1 15652.2198
2037  3  1 26276.2216
2038  3  1 42792.4700
2039  3  1 46283.6962
2040  3  1 28750.3559
2041  3  1 24147.4495
2042  3  1 16670.0519
2043  3  1 11964.7959
2044  3  1  5403.0376
2045  3  1  8314.5919
