pseudo ref pts
2019       31295.5558  0.2690  0.2985  1.0737  1.1884       91071.5347
2020       43875.3961  0.1164  0.2583  1.1605  1.6286       92803.3383
2021       52715.1794  0.0841  0.2106  0.8090  1.5158       88090.0346
2022       67261.6133  0.1279  0.3009  0.6839  1.5446       95488.8148
2023       47803.4285  0.2317  0.3808  0.7101  0.8888       88577.4017
2024       41031.8755  0.3073  0.3795  0.8218  0.6791       83717.7727
2025       68894.1763  0.2039  0.3289  1.9798  0.9431       89690.2222
2026      118713.4288  0.1523  0.2723  1.2033  1.4104       92667.7066
2027       88122.4086  0.1866  0.3033  0.8430  1.0096       91964.6461
2028      122769.9896  0.1832  0.3112  0.6448  1.2883       97081.3834
2029      126389.9811  0.1537  0.2656  0.7960  1.3235       96950.0085
2030      115831.3203  0.2061  0.2537  1.2896  1.2990       96757.3600
2031       84874.1154  0.3600  0.3026  1.2567  0.9799       87819.5443
2032       80230.7880  0.2723  0.3073  3.5983  0.9571       88975.3627
2033       70579.2692  0.3509  0.3506  1.6805  0.7975       85099.2620
2034      101104.5076  0.1412  0.1952  3.5978  0.9559       80989.1155
2035      157976.1975  0.1706  0.2771  3.2307  1.3798       85140.1474
2036      342716.0545  0.1784  0.2942  5.9455  1.9136       93419.5990
2037      559404.1818  0.1230  0.3288  2.4165  2.1781       98429.0748
2038      620726.2011  0.2833  0.3332  0.4557  1.9099       96190.0284
2039      496269.0113  0.2801  0.3338  0.0600  1.5140       95460.6947
2040      366314.2562  0.2799  0.3061  0.1076  1.1693       95760.9063
2041      226065.8551  0.4720  0.2753  0.2046  0.7313       88552.8577
2042      123611.2759  0.2519  0.1834  2.2162  0.5425       81255.8483
2043      124266.3630  0.3586  0.2726  1.8740  0.7277       93383.7698
2044       92565.7446  0.2371  0.2755  2.8567  0.7047       85434.5576
2045      103171.7523  0.3153  0.4165  0.8568  0.8383       94280.4960
