Year Ft Rg C
2019  3  1  3344.9664
2020  3  1  1546.1919
2021  3  1  2249.3310
2022  3  1  4605.0708
2023  3  1  6450.4519
2024  3  1 11032.1617
2025  3  1 12730.9486
2026  3  1 11618.1653
2027  3  1  9803.7246
2028  3  1  7464.0001
2029  3  1  8323.3746
2030  3  1  6150.4085
2031  3  1  6301.9301
2032  3  1  6445.9847
2033  3  1  6552.2396
2034  3  1  8821.9855
2035  3  1 13097.9217
2036  3  1 22050.1683
2037  3  1 14138.9237
2038  3  1 14439.5145
2039  3  1 10550.9092
2040  3  1  6967.7715
2041  3  1  6720.9133
2042  3  1  3520.4171
2043  3  1  3862.0433
2044  3  1  4335.1851
2045  3  1  6433.3711
