pseudo ref pts
2019       35004.5827  0.2789  0.3529  1.3911  1.4032      102546.9407
2020       30895.3307  0.1817  0.3129  1.2826  1.2989       94276.6043
2021       38718.2962  0.1992  0.3725  2.5195  1.2309       88010.8642
2022       52455.1726  0.2515  0.4511  1.5341  1.1383       92745.2488
2023       64006.8836  0.2213  0.3829  1.1280  0.9726       85529.9369
2024      106171.7963  0.1728  0.3272  0.1606  1.4097      104991.5652
2025       79050.8216  0.2239  0.4101  0.3811  0.9446      102521.6760
2026       58282.9838  0.3313  0.4044  0.3454  0.6817       94351.4921
2027       71359.1463  0.3102  0.4539  3.2508  0.8627      104901.0518
2028       92857.8825  0.2182  0.3819  1.8224  1.2189      108803.0244
2029       75124.8054  0.2378  0.3371  1.5577  0.9730      100951.0903
2030       92753.9682  0.1482  0.2773  0.7792  1.1915      104307.0905
2031       78754.8386  0.1768  0.2989  1.2569  1.1605       97699.8567
2032       62181.1602  0.3118  0.3461  1.1648  0.8466       84296.6101
2033       81214.2243  0.2687  0.4013  3.0829  0.9828       88822.7283
2034      113508.9962  0.2535  0.3199  1.7311  1.1439       88612.6026
2035      146553.7165  0.2288  0.4013  1.3506  1.3148       95907.8860
2036      136209.2494  0.4148  0.4065  0.3794  1.0985       92192.5443
2037      119979.0630  0.4233  0.3902  0.2568  1.0157       86609.6894
2038      107713.1403  0.6086  0.6022  0.2853  0.9985       91340.4919
2039      140284.7016  0.4119  0.3884  1.0557  1.3781       93587.3934
2040       96013.3622  0.6959  0.4339  1.8888  1.1630       95238.0169
2041       42245.7893  1.6281  0.5712  1.3368  0.6487       91864.0764
2042       33844.1309  0.4455  0.4690  1.6506  0.7401       93488.3275
2043       51624.7273  0.3142  0.4529  1.6554  1.0885      100842.2465
2044       72349.4431  0.2046  0.4283  1.6053  1.4478      101286.4539
2045       47234.6018  0.2413  0.3323  0.8653  0.9800       84062.3671
