Year Ft Rg C
2019  3  1  3394.0445
2020  3  1  1510.2168
2021  3  1  1557.0490
2022  3  1  2466.0939
2023  3  1  3030.2012
2024  3  1  2026.7904
2025  3  1  2670.2240
2026  3  1  3750.0400
2027  3  1  3707.4144
2028  3  1  4045.1945
2029  3  1  3669.8552
2030  3  1  1843.8988
2031  3  1  2061.8517
2032  3  1  1833.9435
2033  3  1  1645.5767
2034  3  1  2292.8325
2035  3  1  2975.4270
2036  3  1  3743.0001
2037  3  1  5065.7776
2038  3  1  6778.7721
2039  3  1  5633.5074
2040  3  1  3882.5120
2041  3  1  3957.6256
2042  3  1  3061.1294
2043  3  1  2528.3832
2044  3  1  2362.2998
2045  3  1  2786.0041
