pseudo ref pts
2019       26821.4288  0.3338  0.3632  1.1811  1.0704       33731.0287
2020       23910.5177  0.2660  0.4169  0.9712  0.9375       32087.5461
2021       27268.9639  0.2091  0.4318  0.8342  1.0801       34684.3635
2022       25181.5755  0.3649  0.5456  0.8803  0.9956       35055.0874
2023       19062.2205  0.5786  0.6033  1.0147  0.7783       31715.7938
2024       15592.0393  0.6119  0.7105  1.9965  0.6637       29403.1637
2025       33815.8203  0.3181  0.5743  2.6992  1.1787       34174.1227
2026       60642.6188  0.2531  0.4180  1.9942  1.8349       38827.2933
2027       36193.3023  0.4775  0.5152  0.2991  1.0768       33074.8126
2028       34731.6767  0.5096  0.4869  0.4035  1.0209       35162.8056
2029       20627.3685  0.6039  0.3277  0.3713  0.6754       29955.5485
2030       21072.9394  0.2339  0.3723  1.7710  0.8013       33246.3507
2031       25296.9497  0.1694  0.2696  1.6403  1.0524       32899.3438
2032       37014.5681  0.1347  0.2498  4.5212  1.6852       33679.2650
2033       39317.0936  0.1139  0.1927  3.2207  1.6992       30489.7031
2034       40296.9380  0.1307  0.2139  5.1738  1.5202       30562.1345
2035       55261.1568  0.1324  0.2680  1.6634  1.6869       29809.8690
2036       55751.0996  0.2254  0.3582  1.0381  1.3799       28733.4611
2037       71780.5472  0.1683  0.3103  0.2669  1.5280       31956.4562
2038       78816.1157  0.2554  0.3374  0.6572  1.5009       35495.1589
2039       63304.0754  0.2898  0.3062  1.1082  1.2881       34499.6912
2040       56383.2016  0.2429  0.2947  2.8997  1.3115       34602.3803
2041       37302.2431  0.2940  0.2495  0.9840  0.9633       30518.0242
2042       27795.9812  0.1896  0.2542  0.5821  0.8358       30472.5827
2043       23891.5288  0.2324  0.2780  0.5676  0.7926       28739.0386
2044       18610.9917  0.2641  0.3907  0.6973  0.6384       28366.5837
2045       25697.6782  0.2073  0.3629  0.6925  0.8878       30007.5739
