Year Ft Rg C
2019  3  1  4140.7018
2020  3  1  2066.8736
2021  3  1  2344.6287
2022  3  1  4692.3154
2023  3  1  3153.8454
2024  3  1  3401.2654
2025  3  1  2659.5625
2026  3  1  2126.9886
2027  3  1  2290.3586
2028  3  1  1945.8289
2029  3  1  2714.9412
2030  3  1  4907.3403
2031  3  1  4288.0817
2032  3  1  3188.3846
2033  3  1  2847.0909
2034  3  1  2784.4785
2035  3  1  2807.0497
2036  3  1  4826.4175
2037  3  1  4894.8365
2038  3  1  6872.6792
2039  3  1  6865.5654
2040  3  1  7432.0918
2041  3  1  6163.6140
2042  3  1  4854.6868
2043  3  1  4298.1061
2044  3  1  3982.6006
2045  3  1  3748.0894
