pseudo ref pts
2019       22553.8496  0.3318  0.3613  0.7912  0.8182       31611.7814
2020       30269.3970  0.2005  0.3639  1.1406  1.0722       33870.4260
2021       35275.2087  0.2033  0.4336  1.0725  1.1669       36180.5716
2022       32322.1951  0.3939  0.4767  1.0759  1.1610       36449.8409
2023       20484.6530  0.8572  0.8004  0.7610  0.8113       34032.3159
2024       20706.9638  0.5481  0.5427  1.0107  0.7988       32767.5881
2025       20010.3362  0.5510  0.5433  1.3076  0.7824       34024.3465
2026       20800.8214  0.3670  0.4212  1.6004  0.8099       30619.7401
2027       19218.7612  0.3323  0.3315  1.4581  0.6637       26904.3914
2028       27622.6708  0.2723  0.4479  0.9079  0.8722       27301.2956
2029       40467.3997  0.1906  0.3647  0.7264  1.1060       28635.1113
2030       31412.6905  0.3960  0.3901  0.2649  0.8269       28296.1515
2031       37896.9210  0.3407  0.3487  0.4444  0.9946       29836.0848
2032       28880.1168  0.3578  0.3667  0.7567  0.8408       30084.3198
2033       21347.0302  0.6338  0.4765  1.2363  0.6238       28116.7951
2034       19351.2730  0.5295  0.5834  1.0909  0.6351       27690.4666
2035       25854.5386  0.3607  0.5689  1.0371  0.9216       31040.9008
2036       19090.1808  0.5978  0.5009  1.1381  0.6370       28604.6263
2037       30140.1664  0.5079  0.5130  1.6260  0.8778       29885.6606
2038       37508.5086  0.4193  0.4067  1.0895  0.9356       28159.9579
2039       38770.9730  0.4554  0.4904  0.5000  0.8674       29974.7073
2040       28012.6427  0.6012  0.4133  0.2894  0.6130       25859.9224
2041       36829.5977  0.4618  0.3832  0.4007  0.7693       28033.2088
2042       30509.6549  0.4361  0.4915  0.5026  0.7356       29612.6770
2043       20189.9842  0.5510  0.4225  0.6936  0.5137       26650.9021
2044       19713.6186  0.4111  0.5355  1.0219  0.4938       27876.5786
2045       29380.9007  0.2695  0.4333  0.8214  0.6651       29321.2445
