Year Ft Rg C
2019  3  1  2767.5732
2020  3  1  2307.3440
2021  3  1  2619.5254
2022  3  1  4669.5596
2023  3  1  3191.0523
2024  3  1  3151.6026
2025  3  1   792.8753
2026  3  1   962.0671
2027  3  1   866.5792
2028  3  1  1213.0483
2029  3  1  1449.1887
2030  3  1  1599.0456
2031  3  1  1792.8507
2032  3  1  2603.3262
2033  3  1  2174.9715
2034  3  1  1920.2829
2035  3  1  1844.9110
2036  3  1  2448.2636
2037  3  1  2550.1098
2038  3  1  1977.8728
2039  3  1  2603.0522
2040  3  1  3430.0243
2041  3  1  2489.7576
2042  3  1  1435.7210
2043  3  1  1783.9577
2044  3  1  1589.8490
2045  3  1  1730.3296
