pseudo ref pts
2019       29572.1428  0.3348  0.3309  0.9734  1.0816       28790.5285
2020       50555.8389  0.2715  0.4181  1.6093  1.6770       34693.8868
2021       48327.0057  0.3040  0.5279  1.0206  1.5451       35143.5853
2022       50050.1266  0.5657  0.3385  0.7390  1.6347       32900.5863
2023       21862.8317  1.2384  0.3780  0.8112  1.0281       31302.8069
2024       14811.9462  0.9780  0.5735  1.5762  1.0124       34584.7409
2025       14537.7538  0.6962  0.6724  2.2101  0.9334       34402.5886
2026       13807.9245  0.3422  0.3978  0.8488  0.9215       29998.0300
2027       18543.8640  0.2321  0.3573  0.8693  1.2763       32884.4228
2028       24890.8668  0.2262  0.4618  1.6860  1.6116       36416.4503
2029       19426.4921  0.2654  0.3850  1.4970  1.0423       32744.1964
2030       21052.4604  0.2134  0.4034  1.2615  0.9926       32325.8563
2031       23831.2827  0.2397  0.4499  0.4772  1.0539       31093.4743
2032       20612.8219  0.4094  0.4386  0.7177  0.8892       29797.9403
2033       19781.4438  0.3728  0.4034  0.9723  0.7623       30479.8373
2034       24909.5000  0.2149  0.3379  1.5606  0.9209       29707.3739
2035       25101.3751  0.2022  0.3135  0.8795  0.8922       28202.4535
2036       21414.9169  0.2447  0.3412  0.5496  0.8388       29967.0669
2037       17018.0566  0.3032  0.3774  0.6910  0.6439       29161.4796
2038       19134.7387  0.2103  0.3817  0.6677  0.6834       29904.6720
2039       19780.6118  0.2757  0.4807  0.5279  0.6667       29605.0418
2040       18557.6979  0.3236  0.3937  0.2320  0.6720       26981.9154
2041       15812.9239  0.3473  0.3780  0.6600  0.6458       26797.6033
2042       22067.3697  0.1800  0.4020  1.8813  0.9339       32526.8648
2043       21122.4293  0.1827  0.3212  3.8670  0.8378       28806.7439
2044       15192.9904  0.2829  0.3749  1.0113  0.5915       26121.2932
2045       19133.3024  0.2103  0.4181  0.8932  0.7236       28859.8268
