Year Ft Rg C
2019  3  1  3117.7027
2020  3  1  2612.0993
2021  3  1  2683.9318
2022  3  1  1851.8041
2023  3  1  1894.5388
2024  3  1  2153.2644
2025  3  1  1941.7617
2026  3  1  1970.4100
2027  3  1  2490.2806
2028  3  1  1694.0795
2029  3  1  2052.5411
2030  3  1  2135.5593
2031  3  1  2307.2527
2032  3  1  2004.3210
2033  3  1  1744.1623
2034  3  1  2034.0512
2035  3  1  1829.1757
2036  3  1  1747.6718
2037  3  1  1920.5325
2038  3  1   690.3192
2039  3  1  1486.1415
2040  3  1  2329.7466
2041  3  1  3057.3874
2042  3  1  4901.4843
2043  3  1  3532.4681
2044  3  1  4187.8583
2045  3  1  3402.0399
