pseudo ref pts
2019       27887.0856  0.4264  0.5461  1.0540  1.0529       17866.7746
2020       24827.1130  0.3468  0.3219  0.8572  0.9208       16074.1715
2021       16087.6822  0.5205  0.3856  0.9453  0.7098       14333.7850
2022       16392.3573  0.2415  0.3232  0.9029  0.7670       15966.8344
2023       13032.7478  0.3682  0.4065  0.6809  0.6366       15041.2610
2024        7794.4481  0.5465  0.4638  0.1684  0.4211       13276.3498
2025       11082.1632  0.4361  0.3585  0.3651  0.6821       13679.9739
2026       10250.6620  0.4490  0.4293  0.6038  0.7523       15351.3614
2027        9800.9419  0.4426  0.3439  1.0207  0.8183       15449.5092
2028        7286.0750  0.5468  0.3582  0.8112  0.7421       14680.1743
2029        7020.5140  0.6509  0.3134  2.0353  0.8616       14858.6332
2030        7227.6233  0.4105  0.2331  3.7619  0.9644       14490.7556
2031        8239.7112  0.2660  0.2239  3.0048  1.0176       13752.3300
2032       11844.7574  0.2458  0.3517  0.8618  1.3073       14952.9696
2033       20305.7748  0.1284  0.3222  0.8809  2.1386       18415.3965
2034       18589.3643  0.2764  0.3002  0.5597  1.7711       17285.6235
2035       11660.5116  0.5137  0.3383  0.7035  1.1594       15249.9463
2036        6817.4736  0.4973  0.3064  2.2403  0.8050       14057.5357
2037        7360.2271  0.7288  0.4964  3.2001  0.7128       14542.0038
2038        9411.2851  0.2159  0.4150  2.8241  0.7075       13058.9226
2039       11561.7088  0.2048  0.4531  0.5803  0.7884       13388.0166
2040       19415.4127  0.2435  0.3525  0.6451  0.9550       13470.9741
2041       25907.9440  0.2282  0.4565  0.4490  0.9902       15151.1898
2042       23707.6195  0.3679  0.3622  0.3680  0.7714       14254.9975
2043       17716.9327  0.4560  0.4626  0.1664  0.6293       14761.7336
2044       18498.0266  0.4088  0.4120  0.3105  0.6788       14746.1498
2045       15410.9757  0.4686  0.3908  0.2903  0.7174       14315.8177
