Year Ft Rg C
2019  3  1  3165.4917
2020  3  1  1981.2968
2021  3  1  2592.6377
2022  3  1  3847.9629
2023  3  1  2832.7197
2024  3  1  3273.4866
2025  3  1  3155.9079
2026  3  1  1850.6669
2027  3  1  2286.4883
2028  3  1  2667.0092
2029  3  1  2464.1514
2030  3  1  2683.5090
2031  3  1  3349.8915
2032  3  1  5020.7867
2033  3  1  4173.1141
2034  3  1  4006.1172
2035  3  1  3378.3355
2036  3  1  1901.8521
2037  3  1  1904.4589
2038  3  1  3665.9829
2039  3  1  3341.0592
2040  3  1  2373.4796
2041  3  1  2335.2527
2042  3  1  2077.2849
2043  3  1  2445.6332
2044  3  1  2991.9054
2045  3  1  2754.9178
