pseudo ref pts
2019       17180.1141  0.5537  0.4495  0.6532  0.5738       28110.5764
2020       22687.7366  0.2566  0.4006  0.8088  0.7316       30558.4611
2021       23833.5326  0.2282  0.4295  0.8926  0.8077       31209.0716
2022       30055.0474  0.2459  0.3526  0.9656  1.0041       30256.8092
2023       28226.3630  0.3046  0.4623  0.9723  0.9682       31235.1775
2024       24349.2822  0.2996  0.3551  0.7338  0.8002       31620.8122
2025       21115.8135  0.4006  0.3987  0.6202  0.6850       31471.3126
2026       17740.2578  0.2657  0.4473  0.5273  0.6007       31127.9294
2027       29557.0788  0.1548  0.2973  0.6939  0.9927       31448.4381
2028       24167.2372  0.3239  0.4588  1.5451  0.8552       30914.4890
2029       19491.9281  0.4319  0.5017  1.4675  0.6679       29237.5286
2030       17855.6785  0.3253  0.3635  1.3649  0.5395       24805.4828
2031       22247.1710  0.2901  0.3755  0.2652  0.6086       24628.6884
2032       30328.3292  0.3449  0.4980  0.1155  0.7513       27993.1340
2033       24939.2559  0.3357  0.4656  0.1917  0.6007       28084.3023
2034       23802.2731  0.3333  0.3570  0.6496  0.6282       28486.0674
2035       23023.8716  0.3797  0.4663  2.0633  0.6557       30553.7365
2036       24160.9264  0.3264  0.5976  0.9186  0.7498       31215.1818
2037       18825.7456  0.4297  0.6610  0.6785  0.6103       31422.7884
2038       18662.8647  0.3668  0.4852  0.6055  0.6306       32829.8910
2039       12533.7402  0.3437  0.3784  0.6324  0.4660       29502.8646
2040       12730.2074  0.2620  0.4703  0.4041  0.4616       28809.0346
2041       19871.9853  0.1611  0.3552  0.7334  0.6746       31086.2010
2042       16954.6213  0.2465  0.3942  0.6317  0.5637       28860.2433
2043       28070.2633  0.1842  0.3711  2.2762  0.9431       29865.6033
2044       28909.2551  0.2635  0.3779  1.1903  0.8571       30479.7086
2045       41003.6763  0.1999  0.4032  1.0082  1.0673       34359.2313
