Year Ft Rg C
2019  3  1  3709.9804
2020  3  1  2352.8276
2021  3  1  2193.5453
2022  3  1  2572.9015
2023  3  1  2296.3387
2024  3  1  2083.2255
2025  3  1  1938.0027
2026  3  1  2212.7523
2027  3  1  2176.0613
2028  3  1  1855.2616
2029  3  1  2010.8960
2030  3  1  1879.3874
2031  3  1  1981.0068
2032  3  1  1889.8103
2033  3  1  2064.6642
2034  3  1  1843.7016
2035  3  1  1131.5563
2036  3  1   922.6747
2037  3  1  1150.7387
2038  3  1  1068.8931
2039  3  1   944.0170
2040  3  1  1099.9949
2041  3  1  1098.1590
2042  3  1   740.7081
2043  3  1   940.8339
2044  3  1  1431.1638
2045  3  1  2077.9355
