pseudo ref pts
2019       30092.5527  0.3453  0.3827  1.2008  1.1114       16706.1708
2020       22805.2837  0.3516  0.3587  1.0365  0.8392       16500.9245
2021       23319.4971  0.3040  0.3665  1.0434  0.9938       18008.8008
2022       17590.1526  0.4056  0.4407  1.0397  0.8134       17650.3385
2023       17753.3095  0.3993  0.4215  1.2285  0.9957       18375.0803
2024       13262.8416  0.4794  0.4481  1.3474  0.8490       17606.2276
2025       12930.2522  0.6516  0.5475  1.0138  0.9524       18478.5769
2026        6966.7764  0.6930  0.4102  0.7690  0.6737       15861.1813
2027        7827.9135  0.6229  0.3063  1.7718  0.8646       16068.4817
2028        5981.2947  0.5147  0.3923  1.5438  0.6221       14585.2310
2029       10206.1691  0.2836  0.4422  1.8511  0.9946       17248.8622
2030       12031.6480  0.2402  0.3606  0.4784  1.1022       18138.7650
2031       11600.3039  0.2964  0.4212  0.4653  0.9766       17600.3499
2032       17162.9235  0.2486  0.3889  1.1498  1.2793       19325.1529
2033       16320.2378  0.2607  0.3898  2.2482  1.2534       19113.0003
2034       10440.7017  0.4721  0.4032  1.9551  0.7940       16215.3378
2035       16161.0639  0.2547  0.3430  1.5098  1.2572       16960.9348
2036       20710.3558  0.1949  0.3911  1.6989  1.4149       20212.6965
2037       19732.7016  0.2222  0.4657  0.5324  1.4059       20043.0412
2038       16273.1656  0.3605  0.4066  0.6698  1.3192       18218.9634
2039       13367.4217  0.4786  0.3440  0.7427  1.0998       16612.8755
2040       12776.5823  0.2967  0.2998  2.0073  1.2217       16245.0605
2041       12264.9880  0.3485  0.2972  4.4195  1.1735       15507.3785
2042       15505.5743  0.1562  0.2243  3.5882  1.3012       15178.3379
2043       29643.5779  0.1133  0.2798  3.9173  2.0578       17020.8123
2044       30477.5074  0.2098  0.3192  0.5584  2.0929       16331.7352
2045       20127.1983  0.3998  0.4733  0.8613  1.3293       16275.4350
