Year Ft Rg C
2019  3  1  3818.0321
2020  3  1  1482.5876
2021  3  1  1441.1609
2022  3  1  4044.9877
2023  3  1  6051.6191
2024  3  1 15828.8149
2025  3  1 13557.9793
2026  3  1 17269.5754
2027  3  1 13789.6389
2028  3  1  6262.1598
2029  3  1  5297.8126
2030  3  1  3288.9447
2031  3  1  6014.2623
2032  3  1 10994.6932
2033  3  1 13923.6288
2034  3  1 12433.7200
2035  3  1 12870.1797
2036  3  1 12563.7141
2037  3  1 11455.8989
2038  3  1 15543.4112
2039  3  1 13091.0571
2040  3  1  9953.1340
2041  3  1 14960.1990
2042  3  1 27907.3177
2043  3  1 25359.0386
2044  3  1 18040.6743
2045  3  1 14229.7923
