pseudo ref pts
2019       33224.3203  0.2427  0.2437  0.9757  1.0135       88129.1700
2020       41164.4140  0.1220  0.2666  1.1015  1.2798       91977.6537
2021       40630.5614  0.1569  0.4063  1.4562  1.1280       92884.8955
2022       58808.5229  0.3028  0.5616  1.2438  1.1710       96343.8465
2023       89697.3079  0.1645  0.3913  1.4261  1.4022       99968.0389
2024       91407.2909  0.4234  0.5167  0.5635  1.1751      103902.5910
2025      104653.7227  0.4547  0.6939  0.6301  1.1268      114540.2039
2026      127144.0156  0.4322  0.4181  0.4025  1.3308      117673.8944
2027       48762.8160  1.0145  0.4887  0.4960  0.6126      105256.3955
2028       33745.8488  0.3914  0.4259  1.0129  0.5678      104273.8342
2029       45007.5298  0.2669  0.3624  2.9552  0.7419      108980.7541
2030       57167.5289  0.1743  0.4019  1.9175  0.8097      102645.6083
2031       65820.3168  0.2666  0.5131  1.0277  0.8360       90771.8600
2032       88713.8996  0.3582  0.4406  0.3621  1.0240       92765.4577
2033      111488.2719  0.2664  0.3396  0.9469  1.1985       94159.3748
2034      128946.2582  0.2622  0.2672  1.2442  1.2800       91632.7334
2035      129547.4771  0.3151  0.3466  2.7045  1.2010       92125.4751
2036      132132.4909  0.2844  0.3438  0.8635  1.1969       94262.4053
2037       82532.3777  0.5968  0.5967  0.4183  0.8106       89303.3110
2038      123958.6641  0.5068  0.6114  0.4339  1.1636      100747.9936
2039       92471.8772  0.5349  0.4938  2.5263  0.9947       90827.8335
2040      109236.4161  0.4765  0.4437  2.7756  1.0191       91949.8801
2041      129168.4569  0.3386  0.4658  3.0205  1.0570       94063.4251
2042      113239.0199  0.4562  0.4474  0.0696  0.9420       85806.9935
2043       77248.9947  0.5824  0.4804  0.1045  0.6852       84155.7199
2044       87660.4919  0.3660  0.4090  0.1582  0.7255       88700.3187
2045       96690.1363  0.3096  0.3406  1.9015  0.8556       91090.1282
