Year Ft Rg C
2019  3  1  3344.9664
2020  3  1  2731.1237
2021  3  1  3107.8006
2022  3  1  3800.6483
2023  3  1  3831.7851
2024  3  1  4877.5875
2025  3  1  4957.0316
2026  3  1  2771.5645
2027  3  1  2499.6567
2028  3  1  1676.6448
2029  3  1  1977.3879
2030  3  1  1957.0427
2031  3  1  2094.8914
2032  3  1  1460.8375
2033  3  1  1563.5621
2034  3  1  2426.1065
2035  3  1  3629.2330
2036  3  1  5552.0210
2037  3  1  3970.0773
2038  3  1  4516.1949
2039  3  1  3151.3920
2040  3  1  2491.2538
2041  3  1  1876.0531
2042  3  1   906.8626
2043  3  1  1026.2197
2044  3  1  1427.4803
2045  3  1  2000.4634
