pseudo ref pts
2019       35004.5827  0.2806  0.3529  1.3911  1.4032       34182.3136
2020       26879.3395  0.3373  0.3203  1.2826  1.1301       31401.6550
2021       23987.4073  0.4452  0.3813  2.5182  0.9644       29362.8389
2022       23039.2391  0.4197  0.4618  1.5333  0.8587       30885.1871
2023       23913.6775  0.3668  0.3888  1.1273  0.7340       28511.3982
2024       35873.9434  0.2025  0.3322  0.1605  1.1407       34920.9914
2025       25447.4355  0.2645  0.4131  0.3809  0.8464       34101.4274
2026       18026.5731  0.2938  0.4044  0.3453  0.6390       31335.6885
2027       22788.0987  0.2762  0.4504  3.2497  0.8464       35072.3114
2028       30603.6992  0.1776  0.3789  1.8218  1.2286       36304.2518
2029       25733.3612  0.1908  0.3345  1.5573  1.0068       33728.3222
2030       32745.6588  0.1370  0.2773  0.7791  1.2321       34800.3477
2031       27855.9459  0.1682  0.2989  1.2569  1.1885       32585.6402
2032       21767.8027  0.2690  0.3461  1.1648  0.8525       28014.1682
2033       28380.5229  0.2348  0.3982  3.0835  0.9794       29718.4772
2034       39502.3208  0.2294  0.3199  1.7317  1.1380       29501.2103
2035       50839.6424  0.2051  0.4013  1.3512  1.3108       31930.7304
2036       47385.2272  0.3525  0.4065  0.3796  1.0966       30674.0405
2037       42854.5311  0.3784  0.3872  0.2570  1.0230       28952.1784
2038       39186.7854  0.5633  0.6022  0.2853  1.0135       30414.1318
2039       51372.5094  0.3760  0.3884  1.0555  1.4025       31157.7799
2040       35243.8270  0.6848  0.4373  1.8880  1.1738       31596.0218
2041       15058.3632  1.5423  0.5712  1.3358  0.6446       30614.7452
2042       11915.3690  0.4032  0.4690  1.6479  0.7307       31091.1345
2043       17954.7587  0.2845  0.4529  1.6527  1.0702       33610.2374
2044       25025.1922  0.1951  0.4283  1.6032  1.4339       33865.0317
2045       16286.4618  0.2249  0.3323  0.8659  0.9731       28064.9672
