Year Ft Rg C
2019  3  1  3397.0990
2020  3  1  1319.4430
2021  3  1  1664.6085
2022  3  1  2840.2523
2023  3  1  2960.5331
2024  3  1  8571.2923
2025  3  1 11164.7024
2026  3  1 15768.0605
2027  3  1 11527.8461
2028  3  1 16692.9006
2029  3  1 17747.2831
2030  3  1  5091.7580
2031  3  1  4824.8153
2032  3  1  4069.2802
2033  3  1  8322.9822
2034  3  1 17795.0854
2035  3  1 14036.8354
2036  3  1  9944.9875
2037  3  1  8596.6659
2038  3  1  7094.3720
2039  3  1 12921.4161
2040  3  1 16305.7769
2041  3  1 12530.1849
2042  3  1  7056.7553
2043  3  1  5170.0994
2044  3  1  1269.8464
2045  3  1  2464.9870
