pseudo ref pts
2019       24300.0455  0.3124  0.3285  1.0542  0.9481       92406.8278
2020       23473.9304  0.1340  0.3419  0.8158  0.9150       94291.8999
2021       41813.2036  0.0969  0.3064  1.1751  1.1843       94130.4318
2022       64817.8221  0.1242  0.2919  2.1967  1.4936       98157.5765
2023      121091.4431  0.1008  0.3320  2.7504  2.0851      104112.3427
2024      149054.8438  0.2972  0.4346  2.8994  1.9141      104855.7273
2025      278961.6464  0.1739  0.3626  1.6178  2.9882      114264.4562
2026      261491.9683  0.5482  0.5183  2.4089  2.2986      114015.8463
2027      182022.9391  0.8139  0.5953  0.8855  1.6454      109286.7223
2028       88545.8814  1.3989  0.5885  0.7949  0.9092       93275.9362
2029       53280.4618  2.3129  0.5080  0.1590  0.6779       85114.0462
2030       24765.2301  0.8916  0.5905  0.9831  0.5515       89827.1276
2031       44349.9252  0.5982  0.5273  1.3263  0.8701       94551.3769
2032       77466.3096  0.2176  0.5315  4.8688  1.3085       98922.6830
2033      107510.0286  0.2075  0.5096  0.6289  1.6918       98298.9326
2034       76586.7368  0.5851  0.4461  0.4503  0.9679       93728.7365
2035      106652.2314  0.5309  0.4689  0.2452  1.2492       99186.4633
2036       72149.7104  0.7492  0.4727  1.8820  0.8943       94682.0675
2037       56067.6006  1.2325  0.5624  1.3247  0.6614       88326.5308
2038       74742.5504  0.3953  0.4661  3.3351  0.8804       85923.9408
2039      108798.8145  0.2824  0.4540  0.4129  1.3266       95408.6813
2040      102082.0056  0.5767  0.4861  0.5265  1.2811      102157.3446
2041      103880.5180  0.7011  0.5029  0.5206  1.4397      101731.2433
2042       53109.9310  1.0994  0.5917  0.8672  0.8639       99375.8543
2043       32143.5729  1.7534  0.4182  0.8138  0.6536       86059.3821
2044       24395.2170  0.3574  0.4706  1.6909  0.6894       85964.6315
2045       62024.6352  0.1292  0.2808  2.4753  1.5944       90539.5032
