Year Ft Rg C
2019  3  1  3343.7924
2020  3  1  2118.4484
2021  3  1  2591.8015
2022  3  1  3864.1838
2023  3  1  3970.5258
2024  3  1  4546.4029
2025  3  1  6553.6894
2026  3  1  7593.0536
2027  3  1  9210.5416
2028  3  1 11391.1752
2029  3  1 11982.1446
2030  3  1  9389.4675
2031  3  1  9795.3588
2032  3  1 15370.3292
2033  3  1 10754.5927
2034  3  1  6761.0975
2035  3  1  7272.8000
2036  3  1  9773.3674
2037  3  1  8854.1876
2038  3  1  9285.9242
2039  3  1  8338.0095
2040  3  1  8005.9624
2041  3  1  7448.0878
2042  3  1  7773.6573
2043  3  1  6582.8626
2044  3  1  5904.1394
2045  3  1  6467.1420
