pseudo ref pts
2019       40265.2771  0.2815  0.3747  1.4308  1.4999       99347.8187
2020       43050.7667  0.2261  0.3728  1.2792  1.6383       94689.3437
2021       51195.7476  0.1550  0.3465  0.7624  1.6714       96582.8459
2022       54972.6241  0.2061  0.4448  1.0314  1.4930      100038.2800
2023       59174.4165  0.1910  0.3296  1.1495  1.2593       91411.7716
2024      130652.1510  0.1035  0.2520  3.2159  2.0027      104292.9682
2025      122037.2120  0.1218  0.2753  1.8908  1.5238       98670.4054
2026      106150.7690  0.2423  0.3621  1.1573  1.2613      100871.7336
2027      143748.8883  0.1638  0.2602  1.2415  1.4749       97663.5359
2028      139588.1423  0.1970  0.2969  0.9168  1.4006       95871.1858
2029      137138.4534  0.2292  0.3088  1.1312  1.3637       99427.9362
2030      194081.7564  0.2407  0.4249  2.1725  1.9072      114901.8532
2031      206521.7148  0.2205  0.3959  1.9702  1.9315      113451.9056
2032      221765.9277  0.3293  0.3107  1.2344  2.1219      110825.8751
2033      147652.2173  0.5212  0.3459  2.0690  1.7683      109076.1529
2034       95909.7990  0.5425  0.2628  1.6902  1.1789       91082.3783
2035      112335.9001  0.4330  0.2664  3.0261  1.2318       90643.8788
2036      116761.7477  0.2780  0.3068  0.5834  1.4958       94483.9730
2037      120198.9510  0.2699  0.3381  0.9565  1.6428       99009.0164
2038      113875.5021  0.3562  0.3439  0.9338  1.4908       99383.1594
2039       77006.9786  0.3977  0.3014  1.6131  1.0979       86766.5421
2040       75982.0005  0.2186  0.2941  0.8564  1.1074       91324.3686
2041      101165.0413  0.2323  0.3992  1.0467  1.3748      102434.1054
2042       69826.2725  0.3522  0.3523  1.0484  0.9832       96342.4040
2043       68505.5596  0.4799  0.3706  1.2658  0.9408       89028.7628
2044       92977.5267  0.2202  0.3498  1.3108  1.1418       92284.6442
2045      108905.5592  0.1518  0.2686  0.6444  1.3192       92230.9591
