Year Ft Rg C
2019  3  1  3392.6750
2020  3  1  1477.9728
2021  3  1  2632.6793
2022  3  1  2720.5715
2023  3  1  4112.0964
2024  3  1  7704.0184
2025  3  1  5665.5522
2026  3  1  4884.7271
2027  3  1  4292.2252
2028  3  1  8595.2893
2029  3  1  8160.8508
2030  3  1 10070.1716
2031  3  1 10647.0904
2032  3  1 21362.7802
2033  3  1 20544.1371
2034  3  1 17181.3286
2035  3  1 17525.2032
2036  3  1 14968.7460
2037  3  1 12376.7681
2038  3  1  8370.7953
2039  3  1  8858.5617
2040  3  1  8529.5208
2041  3  1  7242.4266
2042  3  1  9987.5731
2043  3  1  9491.9813
2044  3  1  5791.1362
2045  3  1  7959.1881
