pseudo ref pts
2019       19497.3835  0.4293  0.3605  0.6469  0.6747       80949.1490
2020       28541.5176  0.1442  0.3722  0.8443  0.9817       94521.2755
2021       37821.2244  0.1008  0.2969  0.8133  1.1003       89877.9169
2022       81939.5285  0.0701  0.2235  0.9110  1.7096       96848.2979
2023      161971.0399  0.0387  0.1820  1.0620  2.9253      109195.5705
2024      131495.5785  0.1353  0.2131  0.7590  2.0162      111388.7194
2025       82052.0071  0.1781  0.1848  1.4522  1.3309       98440.4851
2026       93584.8039  0.0968  0.2119  2.6776  1.4589      108633.6114
2027       80747.5746  0.1203  0.2762  3.7116  1.2221      105689.9969
2028       86341.0786  0.1612  0.2490  1.2604  1.2018       93602.8596
2029       75767.7171  0.1832  0.2438  1.9968  0.9802       84215.7744
2030      103708.9411  0.2405  0.3698  1.3813  1.1124       89937.0245
2031      121495.8428  0.1784  0.3080  2.0045  1.0401       88845.0599
2032      187750.9942  0.2473  0.3960  0.6175  1.4536       99417.9361
2033       74343.8710  0.3709  0.3241  0.3048  0.5434       77440.8882
2034       88588.4026  0.2410  0.2905  0.2303  0.5960       78612.6565
2035       89196.4857  0.2026  0.2867  0.4349  0.6026       84453.7083
2036       92364.6973  0.2153  0.2699  0.4039  0.6618       83886.4632
2037       96378.2948  0.2092  0.2755  0.8703  0.7462       91553.5535
2038      135292.3140  0.1277  0.2401  1.0262  1.1501      104627.1318
2039       82257.0607  0.2290  0.3067  1.5348  0.7859       93641.5718
2040       76442.4460  0.2511  0.2936  0.8306  0.7338       85356.7728
2041       69579.4377  0.2901  0.3994  0.8388  0.7498       86803.5651
2042       50969.2258  0.3296  0.3381  0.3624  0.5700       80852.4666
2043       40389.5616  0.4396  0.3525  0.4365  0.4986       76165.2100
2044       52228.0098  0.1678  0.3043  0.7375  0.6568       84535.0603
2045       58071.7680  0.1505  0.2723  0.5582  0.7275       82671.8717
