Year Ft Rg C
2019  3  1  3751.3969
2020  3  1  2122.0030
2021  3  1  2300.9702
2022  3  1  2008.3228
2023  3  1  1623.6433
2024  3  1  1657.3774
2025  3  1  1684.3810
2026  3  1  1413.2205
2027  3  1  1280.0271
2028  3  1   968.3042
2029  3  1  1631.0524
2030  3  1  2652.8501
2031  3  1  2704.1764
2032  3  1  2869.9955
2033  3  1  2710.3285
2034  3  1  2504.2673
2035  3  1  2746.9792
2036  3  1  2785.5311
2037  3  1  2790.2790
2038  3  1  2654.5393
2039  3  1  2214.4387
2040  3  1  2629.2577
2041  3  1  2652.6809
2042  3  1  2683.8258
2043  3  1  2293.0034
2044  3  1   777.9957
2045  3  1  1411.7549
