pseudo ref pts
2019       31818.7101  0.2339  0.2505  0.9951  1.0057       15196.1095
2020       46660.4608  0.0971  0.1537  1.3033  1.4524       15410.5442
2021       34105.3874  0.1334  0.1992  0.9297  1.1515       15358.5177
2022       22509.9847  0.1661  0.2271  0.9718  0.8766       15175.0439
2023       13630.9498  0.3069  0.2828  0.5062  0.5732       13679.8788
2024       17010.6712  0.1704  0.2480  1.2563  0.7466       14471.8632
2025       18226.2122  0.1562  0.2456  1.1395  0.9011       15408.4360
2026       11003.4719  0.2386  0.2568  2.0206  0.5678       13771.6379
2027       12212.7598  0.2667  0.2957  1.1653  0.6202       13053.3200
2028       20326.7400  0.1285  0.2935  1.8852  0.9239       14933.0659
2029       22931.4857  0.1255  0.3018  0.7850  0.9480       15464.2611
2030       21283.0007  0.2665  0.3939  0.5187  0.8123       14911.5477
2031       25493.2561  0.2565  0.3966  0.5549  0.8403       15293.4849
2032       33226.8477  0.2881  0.4699  0.5656  1.1082       17415.9246
2033       26618.8485  0.3559  0.5355  0.5397  0.9118       17294.3696
2034       18927.6684  0.6608  0.5292  0.2687  0.7254       15605.9171
2035       27357.6818  0.5227  0.3353  0.5922  1.1860       16661.7395
2036       18237.6783  0.6329  0.2924  1.3055  1.1625       17054.0876
2037       12535.4945     NaN  0.3733  2.4639  1.1685       18289.4602
2038        4904.0170  1.2587  0.2703  3.2035  0.6502       14897.2139
2039        6388.7505  0.7518  0.2793  1.2579  0.9327       14947.9551
2040        6407.2092  0.4029  0.2990  1.0450  0.8666       13808.1262
2041       13366.6908  0.2019  0.2750  0.4936  1.6738       16932.3948
2042       15683.0513  0.1958  0.1681  1.0967  1.6636       14746.7733
2043       14000.0021  0.2916  0.2717  1.4380  1.3302       16121.5510
2044       22460.9249  0.1322  0.2134  5.8592  1.7067       16443.5993
2045       23642.2094  0.1449  0.2866  2.6077  1.4600       16723.0941
