Year Ft Rg C
2019  3  1  3768.2311
2020  3  1  1734.8225
2021  3  1  2445.5501
2022  3  1  2183.3082
2023  3  1  2385.6649
2024  3  1  4242.9433
2025  3  1  5637.8873
2026  3  1  6554.2870
2027  3  1  5552.2777
2028  3  1  3604.4260
2029  3  1  3892.3122
2030  3  1  3310.3128
2031  3  1  3171.7682
2032  3  1  1988.9247
2033  3  1  2726.6530
2034  3  1  2936.8689
2035  3  1  2599.1098
2036  3  1  2104.1391
2037  3  1  1654.3382
2038  3  1  2177.1907
2039  3  1  2892.3259
2040  3  1  5363.2994
2041  3  1  6533.6725
2042  3  1  8073.6334
2043  3  1  6361.3892
2044  3  1  5678.8225
2045  3  1  3586.8360
