pseudo ref pts
2019       20689.9486  0.4995  0.4386  0.8741  0.8636       28521.9448
2020       30471.2115  0.2211  0.3944  1.1628  1.2857       30353.3455
2021       22441.5001  0.2499  0.3709  1.3018  0.9029       27904.1906
2022       30250.0080  0.2787  0.4435  1.9654  1.0508       30394.7102
2023       29651.4668  0.3367  0.5251  2.2731  0.8483       29272.8388
2024       28276.4557  0.6465  0.6787  0.8585  0.6874       29660.5879
2025       33893.8268  0.4236  0.4700  0.4730  0.7695       28022.3917
2026       40657.2831  0.3185  0.3679  0.1303  0.9178       28303.9484
2027       25249.9959  0.5201  0.4646  0.2222  0.5642       26135.6262
2028       34267.3244  0.3092  0.3988  0.6073  0.7966       30947.6946
2029       39912.4695  0.2419  0.3226  2.6634  0.9566       31305.8384
2030       33829.7241  0.3410  0.4437  1.4273  0.9015       34036.7441
2031       24183.1128  0.4256  0.3910  0.9465  0.7078       29504.8733
2032       34183.5020  0.1946  0.2927  0.7831  1.0293       29335.0702
2033       34581.7443  0.1919  0.3156  0.3634  1.1102       28550.9900
2034       26334.1459  0.3498  0.3640  0.3366  0.9771       27566.6062
2035       28341.2566  0.3711  0.3841  1.1267  1.1001       31025.2930
2036       16622.7905  0.5813  0.4446  2.2243  0.6459       29030.6971
2037       18038.7351  0.5094  0.4144  3.5714  0.6629       28059.1404
2038       20407.4133  0.2395  0.3426  1.2364  0.6909       25516.8470
2039       20718.9216  0.2770  0.3913  0.6945  0.5649       24864.3170
2040       47201.1014  0.2144  0.3750  0.5357  1.0840       28465.9039
2041       45930.4515  0.2347  0.4334  0.4633  0.9476       28401.3285
2042       50035.3154  0.2886  0.3242  0.3906  0.9050       27429.1252
2043       55302.8479  0.3331  0.4110  0.2673  0.9822       29740.8660
2044       37107.3949  0.6643  0.5812  0.2265  0.7156       28364.7467
2045       28502.7997  1.1483  0.7625  0.3715  0.6223       29408.1019
