Year Ft Rg C
2019  3  1  3292.2957
2020  3  1  3303.3676
2021  3  1  2724.1299
2022  3  1  2205.9015
2023  3  1  2254.6301
2024  3  1  2781.8159
2025  3  1  2595.9850
2026  3  1  2448.3728
2027  3  1  2521.8789
2028  3  1  2324.4936
2029  3  1  2473.8197
2030  3  1  2519.4106
2031  3  1  1096.8289
2032  3  1  1259.6867
2033  3  1  1365.6485
2034  3  1  1098.6153
2035  3  1  1412.8516
2036  3  1  1569.3159
2037  3  1  1745.5168
2038  3  1  1831.9717
2039  3  1  1794.5500
2040  3  1   728.4961
2041  3  1  1415.0372
2042  3  1  1695.3256
2043  3  1  1259.8601
2044  3  1  1402.6809
2045  3  1  1607.3467
