pseudo ref pts
2019       66877.8131  0.2328  0.4166  2.1503  2.2917       19102.0351
2020       69996.0515  0.3951  0.2924  2.3108  2.3593       19192.6208
2021       28161.2737  1.0557  0.4183  1.2252  1.1694       18549.4864
2022       13733.6609  0.7758  0.2760  0.9114  0.9002       16283.8856
2023       13256.9022     NaN  0.3695  1.3232  1.1721       18835.9024
2024        5862.8765     NaN  0.3366  1.7105  0.9935       18443.0730
2025        4904.9095     NaN  0.3081  3.0343  1.1380       17766.6580
2026        4365.4825  1.7859  0.3116  2.5369  1.0927       16420.5828
2027        7920.6089  0.3665  0.2326  2.3792  1.7125       15768.1689
2028        7584.1546  0.4621  0.3235  0.6659  1.3907       14466.4796
2029        9219.0977  0.4617  0.4459  1.1061  1.4761       15704.1075
2030       12398.9442  0.4697  0.4149  1.2595  1.3952       15301.6984
2031       13982.6094  0.2067  0.4163  2.2914  1.4057       17259.5421
2032       11763.0735  0.3513  0.4928  0.8030  1.0007       15158.0489
2033       10408.1307  0.4383  0.5809  0.3237  0.7566       14570.8532
2034       15962.0382  0.2317  0.3824  0.6774  1.0691       15360.5855
2035       16367.5806  0.2673  0.3910  1.2223  0.9395       15434.1748
2036       25964.1292  0.3457  0.5683  3.6431  1.2758       18432.8214
2037       27062.2927  0.2725  0.5097  1.3855  1.3283       18703.2563
2038       27045.0121  0.5223  0.5225  0.6091  1.4143       18219.1947
2039       14527.4249  0.7893  0.4449  1.7108  0.8824       16129.5477
2040       17603.0228  0.3195  0.4304  2.6497  1.0060       17357.3223
2041       22800.6828  0.2181  0.4187  3.3698  1.0132       16760.0052
2042       26701.6106  0.2367  0.3723  0.1287  1.2202       15860.5366
2043       22911.5354  0.2854  0.3549  0.1276  1.0434       15559.1916
2044       22546.1683  0.3478  0.3977  0.2093  0.9857       16164.4636
2045       16730.6897  0.4516  0.3672  2.0077  0.7971       16070.2403
