Year Ft Rg C
2019  3  1  2799.2139
2020  3  1  1155.6550
2021  3  1  1665.4243
2022  3  1  3191.1397
2023  3  1  4674.3088
2024  3  1  6854.6242
2025  3  1 11407.0917
2026  3  1 12642.8452
2027  3  1 13157.2199
2028  3  1 16187.9530
2029  3  1 20153.0409
2030  3  1 17355.8385
2031  3  1 17792.6959
2032  3  1 14340.9852
2033  3  1 11366.8249
2034  3  1 11419.1139
2035  3  1 10850.4700
2036  3  1 14065.3983
2037  3  1 12059.5834
2038  3  1 10483.3242
2039  3  1 10914.7723
2040  3  1 10362.0208
2041  3  1 13136.2799
2042  3  1 12108.4132
2043  3  1  9746.4508
2044  3  1 16652.2191
2045  3  1 12843.0572
