pseudo ref pts
2019       10343.4740  0.4914  0.2879  0.5563  0.4626       75711.0662
2020       15937.0583  0.0938  0.2823  0.7302  0.7382       84107.3560
2021       32470.3114  0.0778  0.3312  1.0947  1.1408       92127.6781
2022       56388.7831  0.1406  0.4330  1.3522  1.4719       99982.0790
2023       38507.5921  0.2435  0.4758  0.9224  0.7979       82474.1777
2024       38348.3402  0.4044  0.5630  0.9206  0.6177       79104.6849
2025       50720.0906  0.4165  0.5099  0.8079  0.5894       75584.9729
2026       41500.9560  0.6167  0.5404  0.8811  0.4173       68192.0148
2027       60336.8197  0.5251  0.5277  0.6108  0.5189       69840.8796
2028       77868.6635  0.4005  0.4505  0.8904  0.5345       72111.3262
2029       83334.9778  0.3242  0.3703  0.1441  0.5079       71522.2454
2030      140712.0019  0.1944  0.3157  0.2833  0.7615       81749.1064
2031      119945.6870  0.1920  0.3024  0.1192  0.6670       81156.7270
2032       78299.3346  0.3746  0.3853  0.4887  0.4881       73834.0321
2033       79290.1840  0.3344  0.3317  1.1740  0.5492       77354.7494
2034      116768.5206  0.1920  0.3065  3.1689  0.8531       84736.4874
2035      156355.0495  0.1913  0.3411  2.1695  1.1022       84868.6718
2036      155462.0242  0.2473  0.2996  0.5927  1.1531       86435.3391
2037      166951.5093  0.2011  0.2657  1.0777  1.3189       91931.4780
2038      133685.9719  0.1869  0.2116  0.6915  1.0507       85710.7395
2039      145046.0326  0.1919  0.2144  1.8594  1.0823       88020.1678
2040       81594.0774  0.2620  0.2712  0.6688  0.6434       84585.2545
2041      161128.9915  0.2003  0.2992  1.5708  1.1735       98803.2495
2042      164934.1472  0.2496  0.3926  0.6867  1.2318      108442.0874
2043      134775.9608  0.3941  0.5275  0.5410  1.0523      105188.3584
2044       91791.7322  0.9158  0.5936  0.5392  0.7717       97494.2120
2045       51064.2581  1.1688  0.5014  0.5896  0.5668       93576.4610
