Year Ft Rg C
2019  3  1  3768.2311
2020  3  1  2241.9500
2021  3  1  2811.8732
2022  3  1  2843.3459
2023  3  1  4891.3839
2024  3  1 13460.9698
2025  3  1 17913.3834
2026  3  1 18888.3420
2027  3  1 19713.9482
2028  3  1 10212.2393
2029  3  1 12274.7878
2030  3  1 11108.5443
2031  3  1 10273.9234
2032  3  1  7914.0618
2033  3  1  9908.2608
2034  3  1  6781.3430
2035  3  1  6041.4093
2036  3  1  7228.6670
2037  3  1  5124.5293
2038  3  1  6401.3854
2039  3  1  9068.7003
2040  3  1 11515.7286
2041  3  1 14270.8236
2042  3  1 24243.8683
2043  3  1 20011.6216
2044  3  1 25682.2920
2045  3  1 16064.0185
