pseudo ref pts
2019       20689.9486  0.4965  0.4386  0.8741  0.8636       85565.8344
2020       35012.9003  0.1850  0.3914  1.1628  1.4774       90899.7177
2021       33318.1763  0.1690  0.3638  1.3022  1.1048       83783.1260
2022       59065.5932  0.1913  0.4366  1.9663  1.3199       91023.3316
2023       71289.8258  0.2318  0.5190  2.2744  1.0842       88049.3319
2024       76942.9057  0.6405  0.6787  0.8588  0.8404       88845.2226
2025       96433.2611  0.4026  0.4700  0.4731  0.8768       84159.9126
2026      119452.1642  0.3163  0.3679  0.1303  0.9866       84767.8183
2027       75108.7845  0.5628  0.4646  0.2221  0.5820       78542.2944
2028      100817.3064  0.3128  0.3988  0.6073  0.8063       92607.1479
2029      117966.9234  0.2561  0.3226  2.6641  0.9586       93804.6625
2030       99433.0332  0.3672  0.4437  1.4278  0.8981      102121.7373
2031       70544.0044  0.4536  0.3881  0.9468  0.7058       88955.8939
2032       99384.0625  0.2235  0.2949  0.7833  1.0237       87832.1689
2033       99161.4147  0.2140  0.3156  0.3635  1.1011       85893.9704
2034       74697.9582  0.3323  0.3612  0.3367  0.9680       82723.5651
2035       82418.0333  0.3425  0.3841  1.1270  1.0992       92743.8767
2036       49818.3837  0.5983  0.4446  2.2253  0.6554       87163.2386
2037       53932.4073  0.5144  0.4144  3.5727  0.6736       84006.8695
2038       61027.6846  0.2389  0.3426  1.2364  0.6962       76519.9489
2039       62048.7314  0.2936  0.3913  0.6942  0.5648       74477.3572
2040      140611.2889  0.1847  0.3693  0.5352  1.0830       85627.5077
2041      139239.9727  0.2038  0.4268  0.4629  0.9516       85308.8967
2042      153832.5781  0.2722  0.3267  0.3904  0.9127       82092.7968
2043      171109.6317  0.3193  0.4141  0.2672  0.9951       89039.5465
2044      115229.4634  0.7681  0.5856  0.2265  0.7217       85272.9170
2045       83975.4724  1.3956  0.7683  0.3716  0.6149       88203.3025
