Year Ft Rg C
2019  3  1  3115.7930
2020  3  1  1982.4820
2021  3  1  2732.5228
2022  3  1  2432.8848
2023  3  1  1805.2499
2024  3  1  3107.6034
2025  3  1  3511.0141
2026  3  1  4608.7089
2027  3  1  3100.2505
2028  3  1  2810.9213
2029  3  1  2696.7393
2030  3  1  2558.4052
2031  3  1  2638.5503
2032  3  1  3214.2543
2033  3  1  3189.1218
2034  3  1  3137.8637
2035  3  1  2894.1882
2036  3  1  3229.1307
2037  3  1  2642.6499
2038  3  1  2705.7343
2039  3  1  3118.2912
2040  3  1   312.8599
2041  3  1   825.2409
2042  3  1  1621.8547
2043  3  1  1751.9592
2044  3  1  2510.2108
2045  3  1  2425.9813
