pseudo ref pts
2019       30154.8758  0.2487  0.2506  1.1538  1.0846       15546.2645
2020       22585.6864  0.2799  0.3285  0.9577  0.8466       15027.9216
2021       21498.0031  0.2498  0.3308  0.7285  0.8257       15483.9149
2022       21811.5011  0.3399  0.3368  3.8932  0.8425       15333.7280
2023       23476.9202  0.3408  0.4114  4.0770  0.9362       15819.6527
2024       38487.6105  0.2339  0.3705  5.5559  1.3018       16660.0840
2025       44929.8918  0.1538  0.2949  0.2966  1.4458       16546.5540
2026       41869.4207  0.2504  0.2988  0.2349  1.3011       16585.2639
2027       38243.1119  0.2579  0.2902  0.2714  1.3234       16054.8692
2028       22571.1077  0.3667  0.2885  1.0289  0.9182       15119.7628
2029       17536.4901  0.5431  0.2776  1.6172  0.8593       14705.1309
2030       13404.4302  0.3764  0.2721  1.2198  0.8611       14698.5480
2031       18339.3797  0.3000  0.2366  1.1532  1.3393       16171.6605
2032       15397.8274  0.3557  0.2422  0.8890  1.3935       17621.5236
2033       12882.0819  0.6410  0.3593  1.6117  1.6065       19435.2487
2034        9897.5083  0.6447  0.2401  2.1170  1.4558       17848.9361
2035        7611.8519  1.0437  0.3169  1.5047  1.2561       16950.9673
2036        3924.2960  1.4980  0.4014  0.7057  0.9103       16371.3084
2037        2456.7269     NaN  0.3404  1.1739  0.7033       15366.2256
2038        3326.8451  1.6482  0.3868  2.1838  0.8265       14813.3422
2039        5146.3509  0.6767  0.3480  2.1728  0.9968       13455.4493
2040        9631.9086  0.1384  0.4041  0.9113  1.5772       14648.1515
2041       11501.9056  0.1526  0.4104  1.1767  1.4204       14634.3849
2042       17060.8614  0.2707  0.3726  1.0976  1.4198       14951.4971
2043       30955.6632  0.1492  0.3614  2.6519  2.0978       16553.2527
2044       31831.9993  0.2883  0.3355  0.4397  1.9035       16360.3064
2045       23613.4895  0.4899  0.4375  0.5658  1.3673       17176.5431
