Year Ft Rg C
2019  3  1  3121.2796
2020  3  1  1978.6638
2021  3  1  2394.8400
2022  3  1  2535.5484
2023  3  1  2733.3263
2024  3  1  1515.7906
2025  3  1  1637.1663
2026  3  1  1762.7053
2027  3  1  1684.7953
2028  3  1  1342.6225
2029  3  1  2149.7676
2030  3  1  1444.4560
2031  3  1  1472.4471
2032  3  1  1261.3988
2033  3  1  1058.9190
2034  3  1  1387.2461
2035  3  1  1647.5303
2036  3  1  1494.4174
2037  3  1  2146.6516
2038  3  1  5260.1478
2039  3  1  3317.8561
2040  3  1  3305.6687
2041  3  1  3092.5424
2042  3  1  2989.2866
2043  3  1  3159.2118
2044  3  1  2548.7868
2045  3  1  3374.9385
