pseudo ref pts
2019       22563.7268  0.3863  0.4118  0.9773  0.9462       14888.9657
2020       23849.6184  0.3383  0.4992  1.0561  0.9909       15941.0456
2021       23468.1982  0.3135  0.5005  0.9531  1.0014       16670.7451
2022       31529.7756  0.3296  0.4266  1.1955  1.3859       17722.1094
2023       17448.2885  0.5657  0.4176  1.3026  0.8747       15130.7754
2024       13615.8169  0.5081  0.4429  1.4853  0.7591       15660.7981
2025       15967.4878  0.3757  0.3479  1.8531  0.9515       15718.6441
2026       14775.5753  0.2840  0.3320  1.0065  0.9150       16038.7847
2027       13220.7963  0.3955  0.4261  0.9222  0.8673       15189.5817
2028       12338.7940  0.5344  0.6548  0.8261  0.7775       15175.9693
2029        7602.3898  0.5542  0.5847  0.4771  0.4985       14163.2262
2030        9198.4407  0.3752  0.5501  0.4450  0.5555       14828.7212
2031        9708.6388  0.2777  0.4453  0.6254  0.5713       14366.0257
2032        7544.3409  0.3558  0.5457  0.4772  0.4650       14256.0376
2033        9013.4880  0.2983  0.5011  0.6703  0.5376       14531.1317
2034       11912.0771  0.2463  0.4709  1.4078  0.6720       15659.8960
2035       13128.6020  0.2765  0.4558  1.7246  0.6218       15613.2599
2036       17286.3157  0.2733  0.5603  1.9563  0.7328       15903.8967
2037       37696.9297  0.1910  0.6080  0.5709  1.4712       19045.7285
2038       55918.3462  0.4496  0.4388  0.8180  2.0304       19212.1177
2039       26787.4854  0.8043  0.4316  0.6416  1.2219       17561.4672
2040       11719.6100  1.2713  0.5148  0.7976  0.7650       15427.0673
2041       10368.6636  1.8342  0.4212  0.8457  0.8473       15855.5448
2042        3834.5353  2.2862  0.4298  0.3457  0.5714       14556.6260
2043        2908.6701     NaN  0.4027  0.8731  0.6309       15265.5303
2044        2821.8085     NaN  0.3239  1.2163  0.7504       15499.0052
2045        3106.1580  3.7712  0.3651  1.5032  0.8508       15313.3157
