Year Ft Rg C
2019  3  1  3082.9103
2020  3  1  1992.1998
2021  3  1  2289.0493
2022  3  1  2300.5781
2023  3  1  2763.2341
2024  3  1  2373.0244
2025  3  1  1791.6366
2026  3  1  2147.9653
2027  3  1  2174.6623
2028  3  1  5927.9047
2029  3  1  5378.7916
2030  3  1  4439.7130
2031  3  1  4503.4160
2032  3  1  6083.1011
2033  3  1  6464.1290
2034  3  1  6483.7783
2035  3  1  4220.0282
2036  3  1  2358.6476
2037  3  1  1937.7062
2038  3  1  1291.5085
2039  3  1  2037.7992
2040  3  1  2522.4736
2041  3  1  3078.2288
2042  3  1  3152.2738
2043  3  1  3400.7604
2044  3  1  7785.9670
2045  3  1  6573.5721
