pseudo ref pts
2019       32446.4424  0.3303  0.3356  1.3332  1.3329       31534.1648
2020       23346.8166  0.3385  0.2945  1.0136  0.9440       28906.1774
2021       33215.0014  0.2380  0.2485  1.1085  1.2608       30029.1141
2022       29258.4127  0.2278  0.3099  0.8459  1.1294       31784.6632
2023       32958.6173  0.2598  0.3574  1.3727  1.3357       32856.2077
2024       26210.9874  0.3734  0.3551  1.2504  1.0376       33372.4287
2025       32802.3889  0.3610  0.3492  4.8755  1.3143       33551.3384
2026       26579.3205  0.4257  0.4159  2.4509  0.9836       29025.3985
2027       27112.7674  0.4715  0.6181  1.9066  0.8036       29731.5146
2028       26132.1045  0.5531  0.5289  0.1889  0.6760       28913.5639
2029       27272.5222  0.4142  0.3812  0.4273  0.6910       27761.8058
2030       32998.1282  0.3116  0.3698  0.8298  0.7294       30299.3289
2031       44092.5865  0.2512  0.3677  3.5140  0.8499       32796.7105
2032       81879.2994  0.1859  0.3735  1.5297  1.6287       36816.4007
2033       59359.7579  0.1794  0.2893  0.2477  1.2877       33066.1342
2034       46933.5190  0.3673  0.3945  0.2543  0.9700       30835.5409
2035       38606.6416  0.4986  0.5100  0.4613  0.8581       33083.8549
2036       44195.3514  0.4387  0.4713  4.1960  1.1486       37741.3397
2037       16674.7093  1.0546  0.5370  1.2922  0.5037       30314.3130
2038       16683.1698  0.4271  0.6002  1.6922  0.6163       28719.8288
2039       22444.8523  0.3567  0.5456  0.8330  0.8028       31175.7141
2040       33108.2272  0.3521  0.5446  1.7035  1.1579       34268.5551
2041       50266.6147  0.3079  0.4651  2.8359  1.6679       33493.8295
2042       45820.5046  0.5293  0.3952  2.9180  1.1743       32312.4245
2043       55632.6810  0.4779  0.4618  2.1403  1.1652       32903.7737
2044       46198.8499  0.6699  0.5454  0.4141  1.1029       30009.7634
2045       45494.9805  0.6295  0.5286  0.5916  1.0306       31691.7674
