Year Ft Rg C
2019  3  1  3412.0681
2020  3  1  2065.9202
2021  3  1  2890.9705
2022  3  1  2143.8325
2023  3  1  2398.2516
2024  3  1  2337.5484
2025  3  1  1841.7397
2026  3  1  2357.1146
2027  3  1  1772.8821
2028  3  1  2204.4402
2029  3  1  2226.1860
2030  3  1   405.4205
2031  3  1  1003.3370
2032  3  1  2490.7566
2033  3  1  2649.0674
2034  3  1  2217.6541
2035  3  1  2410.7810
2036  3  1  2326.5230
2037  3  1  2186.6160
2038  3  1  2021.4064
2039  3  1  1986.8505
2040  3  1  2002.2369
2041  3  1  2202.8202
2042  3  1  2347.1819
2043  3  1  1855.8630
2044  3  1  2089.1219
2045  3  1  2135.8955
