pseudo ref pts
2019       18838.0581  0.5184  0.4417  0.6459  0.7661       13425.0159
2020       23302.6914  0.2962  0.4008  0.8060  0.9780       13789.5485
2021       19718.5715  0.3276  0.3878  1.0897  0.8971       12915.0262
2022       22910.1660  0.3501  0.4912  1.1453  1.0043       15449.8175
2023       27615.3165  0.2548  0.3573  1.6683  1.2637       15407.2099
2024       22398.0198  0.3225  0.3384  0.6420  1.0443       15699.3409
2025       27799.1929  0.3068  0.3371  1.0265  1.3963       17656.6726
2026       13881.7240  0.5296  0.3615  0.5448  0.8734       15600.8820
2027       12780.7768  0.9559  0.4751  0.7758  0.9278       16377.5565
2028        7547.1664  0.6244  0.3179  1.0179  0.7014       15026.6390
2029       10990.1845  0.5254  0.3412  3.8840  1.2135       17972.9726
2030       12347.2144  0.1862  0.3715  3.3372  1.2173       16087.2083
2031       14756.4148  0.1760  0.4675  1.5381  1.2028       16315.0420
2032       19614.3177  0.2783  0.4470  0.2482  1.4018       16295.8215
2033       21337.2944  0.2268  0.3117  0.4408  1.3209       16005.5126
2034       27313.6037  0.1693  0.2435  0.7854  1.5981       16207.7347
2035       16083.0823  0.2265  0.1938  1.4585  0.9212       13521.0959
2036       13439.6351  0.1808  0.2086  0.9216  0.8182       13238.3161
2037       10698.5538  0.2760  0.2882  0.6663  0.7029       13086.3163
2038       15666.1254  0.1997  0.2660  0.9458  1.0379       14177.6036
2039       16769.1532  0.1828  0.2648  1.1551  1.0910       14933.8858
2040       14869.7797  0.2825  0.3238  0.8416  1.0316       15053.4654
2041       14057.5633  0.2483  0.2200  1.1206  0.9499       14041.6892
2042       15085.0054  0.2221  0.2977  0.9317  1.1215       15980.3601
2043       12345.0787  0.3374  0.4018  0.8560  0.9090       15062.3906
2044       13588.8996  0.4233  0.4382  0.8632  1.0568       15887.2344
2045       12806.4443  0.6689  0.6902  1.0806  1.0229       17400.3879
