Year Ft Rg C
2019  3  1  2989.5836
2020  3  1  2380.7568
2021  3  1  2592.4383
2022  3  1  2665.3228
2023  3  1  2382.3648
2024  3  1  2812.9488
2025  3  1  2524.3529
2026  3  1  2059.7045
2027  3  1  1567.1932
2028  3  1  1561.2563
2029  3  1  1451.8626
2030  3  1  1560.4363
2031  3  1  1742.3110
2032  3  1  1452.7155
2033  3  1  1722.4492
2034  3  1  1436.9329
2035  3  1  1513.1982
2036  3  1  1675.2274
2037  3  1  1359.9261
2038  3  1  1658.9368
2039  3  1  1526.6485
2040  3  1  1507.7930
2041  3  1   699.4574
2042  3  1   783.1696
2043  3  1  1270.3497
2044  3  1  1837.6525
2045  3  1  2595.8376
