pseudo ref pts
2019       22403.7218  0.4114  0.3155  0.7331  0.7966       13214.4734
2020       18351.4299  0.3053  0.3316  0.6342  0.6940       13369.1577
2021       16541.9165  0.3562  0.3993  1.2252  0.6665       12965.7887
2022       15074.8809  0.3465  0.4127  0.9352  0.6194       14373.6965
2023       27356.0664  0.1404  0.2599  1.5560  1.1286       16739.5358
2024       31027.0260  0.1655  0.3021  0.5753  1.3651       17910.8148
2025       26052.6705  0.2265  0.3255  1.1864  1.2194       16143.8654
2026       15756.9258  0.3860  0.3322  1.0022  0.7791       14470.7972
2027       18503.5757  0.3277  0.3804  1.4502  0.9628       16171.6506
2028       22242.4183  0.2370  0.3932  0.6590  1.2028       17784.7609
2029       24306.6722  0.2102  0.3204  0.6323  1.4133       17724.8199
2030       25208.6336  0.3084  0.3925  1.1844  1.6346       18954.3670
2031       11687.2543  0.5628  0.3695  1.4247  0.8333       16999.4368
2032        7436.8085  0.4996  0.4941  1.4777  0.6583       16039.4603
2033       14257.2951  0.2379  0.3383  1.8410  1.2040       17899.1874
2034       18844.1427  0.1911  0.2704  1.4081  1.5551       17729.2615
2035       25411.7333  0.1699  0.2979  1.5437  2.0855       18747.0162
2036       21924.7592  0.3686  0.4034  1.6401  1.7779       20622.4998
2037       15854.6096  0.6100  0.4810  1.4322  1.3507       18969.9473
2038       16762.7937  0.5107  0.4580  1.8131  1.5487       18475.9648
2039        9183.7924  0.7185  0.3802  1.3346  0.9293       15780.2520
2040        7273.7746  0.3590  0.2786  1.6182  0.7800       13952.9415
2041       18690.1846  0.1220  0.2641  2.9251  1.6313       16659.5807
2042       22367.3046  0.1357  0.2516  2.7469  1.6861       16654.2107
2043       28369.3575  0.1323  0.2457  1.8633  1.8064       15340.5500
2044       35661.2509  0.2123  0.3502  1.5353  1.5567       16274.4275
2045       26349.1118  0.2619  0.3746  0.4796  0.9849       14827.7293
