Year Ft Rg C
2019  3  1  3773.4946
2020  3  1  1871.5416
2021  3  1  1937.7742
2022  3  1  2488.0636
2023  3  1  2000.4861
2024  3  1  1534.9320
2025  3  1  1761.4101
2026  3  1  1714.7110
2027  3  1  1949.7970
2028  3  1  1514.0925
2029  3  1  1269.5538
2030  3  1  1702.3458
2031  3  1  2082.5581
2032  3  1  1853.0447
2033  3  1  1937.6957
2034  3  1  2008.2579
2035  3  1  1803.9732
2036  3  1  1933.3589
2037  3  1  3743.8119
2038  3  1  6529.5140
2039  3  1  6816.9822
2040  3  1  3509.0518
2041  3  1  2860.8023
2042  3  1  1133.5750
2043  3  1  1186.4160
2044  3  1  1715.9686
2045  3  1  2000.4024
