pseudo ref pts
2019       38593.0797  0.1865  0.2377  1.4447  1.5734       17081.9789
2020       30096.3728  0.2401  0.2864  1.3134  1.1803       16094.6247
2021       18270.2111  0.3309  0.3357  0.5921  0.7092       15267.5659
2022       24199.6678  0.2040  0.2649  1.0707  1.0377       15845.6005
2023       30492.3983  0.1981  0.3098  1.6968  1.4446       17331.6821
2024       27887.4422  0.3062  0.3186  3.2950  1.4075       17532.5227
2025       23252.1049  0.5189  0.4316  2.1093  1.2864       16413.8903
2026       15087.0120  0.7032  0.4661  1.0477  0.9177       15104.9488
2027       19441.3639  0.5428  0.3863  1.4710  1.2012       16273.9691
2028       14867.0108  0.6049  0.4659  1.3338  1.0160       14943.8888
2029       18376.5074  0.4592  0.4040  1.4598  1.0820       14856.4324
2030       13067.2038  0.5948  0.4806  0.5445  0.7679       13616.7784
2031       15912.8332  0.4875  0.4915  0.4578  0.9901       14719.1620
2032       11182.7020  0.5956  0.4552  0.4123  0.6775       14066.6428
2033       12677.3300  0.6440  0.4665  0.9208  0.7489       14350.2669
2034       13273.9513  0.3890  0.3619  3.5890  0.8021       13946.7705
2035       26092.0176  0.2039  0.2406  4.4379  1.2573       14302.9867
2036       28558.0808  0.1854  0.2862  2.3028  1.1581       13555.0528
2037       29121.9797  0.2108  0.3892  0.2211  1.0397       14496.2386
2038       37527.6284  0.2053  0.2360  0.1227  1.1211       14217.9657
2039       45284.6484  0.2740  0.3426  0.1702  1.3078       15995.9160
2040       33008.7848  0.5674  0.5299  0.9511  1.0720       16407.4008
2041       24037.8242  0.7633  0.4349  2.7400  0.9163       16630.5426
2042       15440.7909  0.5063  0.3305  4.0748  0.7548       15291.3929
2043       19628.8741  0.4160  0.3782  2.0997  1.0106       17479.0654
2044       20099.3268  0.3128  0.3821  1.9153  1.0831       16111.0919
2045       15083.1472  0.4409  0.5010  0.6528  0.8065       15371.7324
