Year Ft Rg C
2019  3  1  3933.2221
2020  3  1  1151.4407
2021  3  1  1364.9099
2022  3  1  2667.2429
2023  3  1  1380.4410
2024  3  1  1378.2429
2025  3  1   855.6187
2026  3  1  1076.3045
2027  3  1  1230.0572
2028  3  1  1096.2004
2029  3  1  1173.3547
2030  3  1  1550.0190
2031  3  1  1940.5370
2032  3  1  2113.8067
2033  3  1  1704.5816
2034  3  1  1930.8069
2035  3  1  1077.0889
2036  3  1   928.3846
2037  3  1   876.5623
2038  3  1  2041.6026
2039  3  1  3008.2594
2040  3  1  2370.5998
2041  3  1  2447.8796
2042  3  1  2562.2894
2043  3  1  2619.6152
2044  3  1  2157.0699
2045  3  1  2469.7386
