pseudo ref pts
2019       44120.3165  0.1931  0.2514  1.5162  1.7456       16702.5432
2020       34992.2871  0.1950  0.2932  1.4739  1.3759       17616.1856
2021       40047.5397  0.2122  0.4124  1.5969  1.5881       20580.8676
2022       42094.6836  0.3243  0.3975  1.9275  1.9073       22472.2311
2023       27395.5802  0.5098  0.3614  2.3532  1.5868       19429.1573
2024       27349.7139  0.4162  0.3702  3.9829  1.9181       20862.3521
2025       33055.7422  0.2988  0.2870  4.8164  2.3043       20601.6236
2026       28355.0214  0.3010  0.3045  1.4135  2.1883       19336.6602
2027       15242.5497  0.5403  0.3470  0.8082  1.3538       16718.8971
2028        9261.4447  0.6250  0.5295  0.9307  0.9027       17194.8085
2029       15311.8576  0.4570  0.5746  2.7997  1.3576       19027.9239
2030       18702.1703  0.6387  0.7366  2.1577  1.4092       17592.7087
2031       20389.0903  0.4420  0.4575  0.9429  1.3798       15758.7687
2032       23495.0337  0.4689  0.4814  0.5701  1.5616       17726.5208
2033       12643.1332  0.7095  0.5083  0.6006  0.9343       16503.4455
2034       14956.4669  0.3590  0.3423  1.8319  1.1859       16338.1862
2035       12018.3413  0.2732  0.2798  2.0104  0.8867       15276.4985
2036       14093.5780  0.1448  0.2975  2.5020  0.9552       15038.5173
2037       23448.3874  0.1032  0.2473  1.6320  1.2430       16054.9787
2038       38316.8559  0.1637  0.3073  2.1694  1.5499       17070.2502
2039       41588.4859  0.1680  0.3488  0.4605  1.5586       16845.7302
2040       31721.2426  0.2824  0.3141  0.1971  1.0950       18044.0234
2041       23972.2206  0.4588  0.3531  0.2662  0.8870       18043.2829
2042       14803.1208  0.4238  0.2648  0.6639  0.7012       15665.3615
2043       14410.2944  0.5974  0.2721  1.9520  0.8286       15833.8403
2044        6447.7257  0.7615  0.3074  0.7145  0.4998       14045.3406
2045        8435.7669  0.7754  0.3401  1.0247  0.8586       16888.7498
