Year Ft Rg C
2019  3  1  3138.2815
2020  3  1  1297.6544
2021  3  1  1810.7898
2022  3  1  2893.7890
2023  3  1  3348.4481
2024  3  1  2647.3736
2025  3  1  3582.2509
2026  3  1  1818.4677
2027  3  1  3050.8938
2028  3  1  3013.7693
2029  3  1  4339.9980
2030  3  1  5665.3011
2031  3  1  7722.7263
2032  3  1  8500.5628
2033  3  1  7148.1748
2034  3  1  6818.1438
2035  3  1  4305.5923
2036  3  1  4621.5157
2037  3  1  4400.3464
2038  3  1  2828.8415
2039  3  1  3427.3016
2040  3  1  3944.7103
2041  3  1  4686.5807
2042  3  1  4346.7835
2043  3  1  3460.1119
2044  3  1  2807.0445
2045  3  1  2875.8448
