pseudo ref pts
2019       13605.0423  0.5134  0.4100  0.5098  0.5185       27508.6405
2020       25075.7619  0.1483  0.4306  0.8882  0.9238       33866.6334
2021       42633.5106  0.0749  0.2863  1.2291  1.4799       34655.8565
2022       45642.5338  0.1860  0.3318  1.2092  1.4462       36119.9621
2023       35548.0150  0.2099  0.3025  0.8639  1.2226       32676.2465
2024       25775.7388  0.2313  0.2602  0.8051  0.7992       31176.4723
2025       24317.5332  0.2587  0.2657  0.7300  0.7816       30552.0388
2026       23478.8679  0.1199  0.1946  1.9819  0.7904       29546.0177
2027       23958.1469  0.1659  0.2592  1.4844  0.7244       31102.1580
2028       28105.6834  0.1793  0.4194  1.3876  0.7289       32066.3947
2029       27779.4595  0.1730  0.3083  0.5440  0.6508       28012.5886
2030       29238.7710  0.3018  0.3855  0.3704  0.5897       27809.4839
2031       30011.4884  0.3034  0.3588  0.4711  0.5390       26068.1682
2032       52134.8872  0.1920  0.2778  0.4037  0.8813       29602.9644
2033       45363.4123  0.2157  0.2730  0.5983  0.7474       28935.6491
2034       47313.2055  0.2259  0.2880  0.8368  0.8115       30928.7838
2035       57967.8524  0.2248  0.3430  1.4798  1.0497       33133.9749
2036       57590.5963  0.2381  0.2990  1.9544  1.1263       35215.8519
2037       41431.2699  0.3493  0.3365  0.7938  0.8937       34321.9724
2038       36306.9361  0.3023  0.3263  1.9764  0.8295       31182.6138
2039       58353.8228  0.2030  0.3399  1.6549  1.2796       38079.2639
2040       55949.7179  0.2538  0.2894  1.7853  1.2212       31667.9497
2041       55587.7120  0.2696  0.3250  0.2710  1.2981       31858.6216
2042       52262.8936  0.3726  0.4330  0.4510  1.3006       32844.2325
2043       27632.8586  0.6163  0.4736  0.3251  0.7942       28983.2067
2044       25868.5543  0.5440  0.4891  1.1277  0.8059       29162.2306
2045       13722.9975  0.8373  0.5437  0.9154  0.5299       26600.5511
