Year Ft Rg C
2019  3  1  3354.3014
2020  3  1  1824.8718
2021  3  1  2505.0459
2022  3  1  2677.9708
2023  3  1  2601.2813
2024  3  1  3753.9420
2025  3  1  2523.0595
2026  3  1  1668.0492
2027  3  1  1561.4327
2028  3  1  2332.9878
2029  3  1  2205.0183
2030  3  1  2387.0103
2031  3  1  2346.5403
2032  3  1  2171.3118
2033  3  1  2521.3331
2034  3  1   744.7210
2035  3  1  1923.7740
2036  3  1  2058.7087
2037  3  1   152.2397
2038  3  1   483.5091
2039  3  1   715.5771
2040  3  1  1934.8406
2041  3  1  2006.3403
2042  3  1  3085.3764
2043  3  1  2143.5602
2044  3  1  1992.9878
2045  3  1  2196.6713
