pseudo ref pts
2019       17657.5215  0.3803  0.2926  0.6900  0.6659       13246.7043
2020       18541.1561  0.2715  0.3835  0.7180  0.6997       13181.8018
2021       17010.4373  0.2552  0.3657  1.6029  0.6860       13425.1230
2022       30689.9041  0.1936  0.2696  1.7268  1.1209       14055.1969
2023       21389.0782  0.3170  0.4089  1.5810  0.8035       13932.2331
2024       21370.9978  0.4087  0.3943  0.5355  0.8248       13771.4632
2025       27736.7518  0.2376  0.2657  1.0374  1.1057       14127.7697
2026       36794.5908  0.1419  0.2339  1.2167  1.4936       15276.8841
2027       35332.7674  0.1533  0.2457  1.2917  1.4242       14641.9874
2028       40675.7614  0.1891  0.2784  1.4229  1.6745       16572.3239
2029       40661.3635  0.2440  0.3850  1.0754  1.6178       18701.7963
2030       35901.2806  0.4495  0.3494  0.6296  1.5822       17848.7647
2031       19335.8891  1.2657  0.4852  0.4935  1.1344       17794.0363
2032        7869.2999  4.7852  0.5653  0.5764  0.7592       17512.7929
2033        2525.5631     NaN  0.5407  0.9703  0.4517       15785.5628
2034         758.7457  5.7157  0.3604  1.9951  0.3632       14451.8167
2035        2436.7566  1.8786  0.3591  4.1766  1.2681       13761.2714
2036        6884.0649  0.3437  0.2601  4.2790  1.9828       14621.2979
2037        8664.4832  0.0531  0.2419  2.0587  1.8237       13705.9760
2038       12679.4653  0.1033  0.2629  0.5566  1.3282       13561.3052
2039       19980.2830  0.0929  0.3211  0.6183  1.2889       14595.9455
2040       19794.2182  0.2725  0.4207  0.2572  0.9163       14699.4159
2041       23476.5124  0.2653  0.4139  0.3992  0.9603       14420.7893
2042       25209.4847  0.3233  0.3026  0.9373  0.9695       13843.4235
2043       23679.3579  0.2964  0.3146  2.1360  1.0606       15441.8038
2044       18998.0825  0.2296  0.2841  1.9184  0.8238       14402.9692
2045       17755.3483  0.2784  0.3236  0.5634  0.8158       14309.6048
