Year Ft Rg C
2019  3  1  2989.5836
2020  3  1  1248.7297
2021  3  1  1707.0237
2022  3  1  4063.2750
2023  3  1  6158.0658
2024  3  1  8729.1543
2025  3  1 11370.6007
2026  3  1  8525.1407
2027  3  1 11168.8638
2028  3  1 13822.6294
2029  3  1 11537.9816
2030  3  1 11290.2448
2031  3  1  8916.8508
2032  3  1  4183.5978
2033  3  1  6582.9113
2034  3  1  7034.7835
2035  3  1  7557.6605
2036  3  1 10282.3618
2037  3  1  6948.4796
2038  3  1  6675.8226
2039  3  1  5531.4248
2040  3  1  5392.6755
2041  3  1  7215.5946
2042  3  1  7875.3391
2043  3  1 12321.8876
2044  3  1 17063.7573
2045  3  1 22487.2454
