pseudo ref pts
2019       22403.7218  0.4084  0.3155  0.7331  0.7966       79286.8403
2020       21717.2565  0.1620  0.3215  0.6342  0.8213       80282.1472
2021       28496.7108  0.1640  0.3842  1.2258  0.8794       77893.5428
2022       40753.1888  0.1965  0.4032  0.9358  0.8698       85965.0570
2023      101027.0674  0.0755  0.2540  1.5573  1.6520      100993.5246
2024      140107.1922  0.1308  0.2953  0.5759  1.8979      107951.0825
2025      135764.1292  0.1769  0.3230  1.1880  1.5269       96970.6859
2026       92320.8862  0.3138  0.3297  1.0034  0.9090       86872.7062
2027      115583.6910  0.2955  0.3833  1.4511  1.0727       96724.5583
2028      141763.5698  0.2592  0.3992  0.6593  1.2877      106436.9669
2029      149994.5487  0.2187  0.3253  0.6327  1.4400      106140.1294
2030      152539.0580  0.3254  0.3955  1.1855  1.6185      113686.0466
2031       69216.4750  0.5500  0.3695  1.4263  0.8131      101968.2430
2032       44547.5864  0.3590  0.4866  1.4797  0.6520       96258.0453
2033       90321.7272  0.1830  0.3357  1.8434  1.2266      107107.6954
2034      122785.8301  0.1673  0.2683  1.4096  1.6074      106648.2661
2035      165886.5604  0.1472  0.2979  1.5442  2.1468      112385.7021
2036      144101.6920  0.3545  0.4065  1.6395  1.8006      123256.1180
2037      102185.3880  0.5766  0.4810  1.4316  1.3465      113563.6516
2038      106785.2211  0.4389  0.4580  1.8134  1.5368      110605.5094
2039       59752.5991  0.5786  0.3802  1.3367  0.9261       94386.6980
2040       48403.6284  0.2712  0.2743  1.6210  0.7888       83655.3840
2041      122910.7149  0.1553  0.2662  2.9283  1.6437       99906.5736
2042      138537.4520  0.1670  0.2536  2.7424  1.6539       99943.2451
2043      168499.1652  0.1737  0.2457  1.8575  1.7404       92437.3900
2044      205188.6905  0.2620  0.3529  1.5305  1.4887       97594.3283
2045      148542.7119  0.3325  0.3746  0.4786  0.9541       89297.9594
