Year Ft Rg C
2019  3  1  3772.5061
2020  3  1  1865.8099
2021  3  1  2294.5818
2022  3  1  3004.6325
2023  3  1  2821.5556
2024  3  1  2487.5617
2025  3  1  1952.8509
2026  3  1  2507.6929
2027  3  1  2753.9381
2028  3  1  2346.3185
2029  3  1   694.2568
2030  3  1   716.8352
2031  3  1   723.5446
2032  3  1   911.7713
2033  3  1   799.5267
2034  3  1   706.2613
2035  3  1   806.8221
2036  3  1   823.7802
2037  3  1   798.1655
2038  3  1   838.0856
2039  3  1   925.6688
2040  3  1   653.7541
2041  3  1   927.5651
2042  3  1   805.2026
2043  3  1   920.6950
2044  3  1   808.9313
2045  3  1  1039.1132
