pseudo ref pts
2019       34901.2076  0.1894  0.2521  0.9917  1.2551       15825.6378
2020       30213.8046  0.1859  0.3306  0.9977  1.0846       17002.7193
2021       23024.3775  0.2455  0.3189  0.8111  0.8402       15028.5448
2022       25949.2451  0.2456  0.3558  1.2587  1.0159       16247.3158
2023       18348.8596  0.3022  0.2962  1.1455  0.7855       14707.7815
2024       16873.7240  0.3306  0.3851  0.9765  0.7390       14106.3798
2025       20487.2907  0.3348  0.5020  0.5290  1.0116       15737.0964
2026       16752.7487  0.4713  0.3445  0.6237  0.8842       14724.9051
2027        8130.9710  0.7359  0.2453  0.4992  0.5073       12549.6848
2028        6694.7639  0.4064  0.3473  1.7623  0.4747       13819.4622
2029       13616.7174  0.1169  0.2636  1.5497  0.8857       14962.5924
2030       13618.1680  0.2399  0.4104  1.4120  0.8307       13909.8326
2031       19495.0326  0.1682  0.4195  0.3961  1.1617       16027.0669
2032       21884.2246  0.2879  0.3892  0.5300  1.1674       15334.3312
2033       17786.2725  0.3761  0.4654  0.2727  0.9844       15354.1003
2034       16034.3622  0.4307  0.4752  0.8214  0.9614       15502.1311
2035       14903.9004  0.3965  0.3390  1.0079  0.9884       15089.4995
2036       11910.4948  0.2997  0.2980  1.5604  0.9261       14894.0204
2037       16295.8321  0.2277  0.2784  1.7439  1.3929       15909.9523
2038       13408.9061  0.1980  0.2108  1.5466  1.1730       14821.2433
2039       16604.8503  0.1761  0.2390  2.5234  1.4456       16957.1183
2040       14872.7283  0.1517  0.2646  1.6355  1.1756       15649.2836
2041       13028.8222  0.1675  0.2684  0.7313  0.8913       14446.2243
2042        9453.9303  0.2240  0.3818  0.1842  0.6281       13893.1340
2043        9185.9497  0.2880  0.4481  0.2352  0.5584       14011.7388
2044        9224.4789  0.2527  0.3752  0.3090  0.5494       13601.5799
2045       11810.1353  0.2083  0.3580  1.8057  0.6608       15407.5411
