Year Ft Rg C
2019  3  1  3304.8524
2020  3  1  1376.3427
2021  3  1  1953.3729
2022  3  1  3729.8879
2023  3  1  6138.9113
2024  3  1  7216.0976
2025  3  1  8553.8074
2026  3  1 11822.3861
2027  3  1 11403.1799
2028  3  1 29452.9933
2029  3  1 21461.2260
2030  3  1 12250.6493
2031  3  1 13308.0081
2032  3  1 10583.5435
2033  3  1 13073.4716
2034  3  1 11276.2514
2035  3  1 10751.4182
2036  3  1  5004.5152
2037  3  1  5792.7174
2038  3  1 13771.8611
2039  3  1 11004.9626
2040  3  1 13692.3458
2041  3  1 12226.0805
2042  3  1 11570.7549
2043  3  1 12911.5674
2044  3  1 14802.8265
2045  3  1 14184.8296
