pseudo ref pts
2019       18443.3647  0.5544  0.5429  0.6653  0.6340       87666.0529
2020       31911.0055  0.1743  0.4790  0.9421  1.0733       99025.8312
2021       48463.5832  0.1356  0.4626  0.5590  1.3827       95230.2820
2022       80933.6897  0.2045  0.4478  0.6837  1.9381       98879.6847
2023       87287.9170  0.2174  0.4114  0.9623  1.8922       93063.8753
2024       60375.8374  0.8154  0.5949  2.9327  1.1358       86214.7837
2025      124740.4497  0.3698  0.3763  4.4310  1.8698       91228.7567
2026      102797.2168  0.5282  0.4172  2.8076  1.2425       82885.7592
2027      152215.1581  0.3950  0.3812  0.7341  1.5697       84743.4722
2028      144253.2116  0.6319  0.5090  0.7590  1.4015       90431.3879
2029       48204.4985  1.2852  0.5989  0.1260  0.5121       75747.6225
2030       77442.1064  0.4355  0.5469  0.7839  0.8490       88226.0756
2031      111286.2674  0.2312  0.3155  0.9350  1.1803       89083.3205
2032      135144.3729  0.3232  0.4228  2.7650  1.3840      101541.1793
2033      119254.2715  0.3406  0.4093  1.2559  1.2670      100276.0810
2034      154837.0446  0.2850  0.3011  1.8108  1.6533      104371.2150
2035      127192.6928  0.2533  0.2219  1.8404  1.3121      100062.0011
2036      129033.0670  0.1403  0.2474  1.3200  1.3583      101004.8110
2037      133194.2679  0.1311  0.2549  1.2892  1.3489       99652.0517
2038      232174.6658  0.1382  0.2473  1.1740  2.2615      104742.3033
2039      199512.1328  0.1505  0.2428  2.0192  1.9263       94165.8982
2040      284761.4834  0.1434  0.2185  1.5463  2.5247      108174.6738
2041      216467.9739  0.1725  0.2587  2.5317  1.9138      111227.8990
2042      250654.5139  0.1827  0.2599  1.2234  2.0509      119067.6077
2043      236653.5551  0.2161  0.2845  1.8595  1.9117      118819.2814
2044      149231.5215  0.3589  0.2438  0.5735  1.4124      103279.2304
2045      159142.0808  0.3579  0.2308  2.6023  1.9074      115288.7002
