Year Ft Rg C
2019  3  1  3189.1172
2020  3  1  2343.8510
2021  3  1  2780.1715
2022  3  1  3674.7852
2023  3  1  5036.0464
2024  3  1 13726.6513
2025  3  1  9144.9588
2026  3  1  7970.2527
2027  3  1  9202.9232
2028  3  1  8009.0364
2029  3  1  7993.7571
2030  3  1  6146.0153
2031  3  1  5416.1823
2032  3  1  7437.7275
2033  3  1  6679.9675
2034  3  1  9980.3194
2035  3  1  7161.9746
2036  3  1  7988.3461
2037  3  1  7431.1840
2038  3  1 10340.0724
2039  3  1  9618.8012
2040  3  1  9674.9270
2041  3  1  7884.2499
2042  3  1  3169.8702
2043  3  1  5229.9522
2044  3  1  8333.3273
2045  3  1  8576.9758
