pseudo ref pts
2019       24584.3866  0.5336  0.5815  0.9012  0.8565       95564.9067
2020       32710.0386  0.2165  0.3617  0.9910  1.1757       91126.8774
2021       50462.5387  0.1288  0.2909  1.8454  1.4954       94441.4583
2022       78923.9324  0.1219  0.2826  1.5046  1.8387       93837.1031
2023      135532.4226  0.1168  0.4091  1.7503  2.3690      109392.2855
2024      126116.3801  0.4552  0.4685  0.7248  1.7465      110848.2878
2025      126181.4667  0.3057  0.2576  1.0275  1.6282      101554.5608
2026       99727.0902  0.2415  0.2155  1.1938  1.1808       93821.9571
2027      107204.1080  0.2171  0.2333  1.2937  1.2861       98049.1530
2028       86351.9044  0.2699  0.4111  0.6399  1.1728      102308.0387
2029       84809.4655  0.3022  0.4230  0.8302  1.1917      103148.3511
2030       80564.6552  0.3158  0.3337  1.3177  1.1369       97019.3970
2031       52279.1236  0.4801  0.4225  1.2300  0.7502       90295.2089
2032       57514.5289  0.2810  0.3803  1.1400  0.8204       86960.0468
2033       87835.5064  0.2503  0.5206  0.9157  1.1903      107478.3107
2034       84712.3779  0.5609  0.6946  1.4112  1.0915      108656.9065
2035       93615.5225  0.3592  0.4375  0.9265  1.2139      104268.7117
2036       81554.4324  0.4506  0.4749  1.5769  0.9751       99522.7060
2037       83795.8467  0.3951  0.4004  0.7095  0.9669       94872.3376
2038       73740.1022  0.4702  0.5093  0.7955  0.8533       95489.6356
2039       98526.7328  0.3716  0.5249  0.5572  1.2182      107797.8391
2040       65102.9919  0.8032  0.5279  0.7962  0.8873       97990.5126
2041       69473.3336  0.6194  0.3541  2.2390  1.1433      101275.2699
2042       56794.1396  0.2499  0.3208  4.2319  0.9421      100062.9528
2043       88628.0503  0.2008  0.3439  3.1848  1.1780      100575.0292
2044       90226.7722  0.2352  0.3637  0.7555  1.1239       98386.9756
2045       91693.5332  0.1758  0.2756  0.2207  1.1489       94731.3634
