Year Ft Rg C
2019  3  1  3415.0314
2020  3  1  1731.9758
2021  3  1  2688.8048
2022  3  1  3908.2378
2023  3  1  3686.0307
2024  3  1  6067.1072
2025  3  1  7121.0112
2026  3  1  4081.3324
2027  3  1  5314.0619
2028  3  1 10063.7093
2029  3  1 11207.9375
2030  3  1 10668.3119
2031  3  1  8684.9552
2032  3  1 10168.4752
2033  3  1 10629.3855
2034  3  1  8296.2719
2035  3  1  8411.0820
2036  3  1  5183.8130
2037  3  1  4241.1417
2038  3  1  2927.6520
2039  3  1  4116.0480
2040  3  1  3938.8591
2041  3  1  7765.0166
2042  3  1 12833.5671
2043  3  1 10115.0314
2044  3  1  7708.8777
2045  3  1  8341.8888
