pseudo ref pts
2019       35718.1349  0.2440  0.3710  1.3977  1.3464      108789.8210
2020       36546.8653  0.1421  0.3401  1.1813  1.4215      108682.5483
2021       59661.7487  0.1185  0.3716  1.3904  1.8696      105442.6725
2022       86098.4369  0.1687  0.3705  1.4574  1.8804      111356.6696
2023      104759.4170  0.1314  0.3233  1.1778  2.0307      105138.6352
2024      100480.1883  0.2751  0.3573  0.9310  1.6726       99574.5438
2025      100541.8126  0.2437  0.2898  1.5676  1.5588      100295.9446
2026       80621.4153  0.2404  0.2905  2.3580  1.0853       97633.4459
2027      132700.9156  0.1480  0.2711  2.8330  1.5169      109405.7819
2028       95124.4346  0.3195  0.3633  0.7238  1.0455       86904.1606
2029       57347.2525  0.5646  0.4429  0.1554  0.5793       77466.6209
2030       83825.9549  0.2442  0.3560  0.4191  0.8455       92527.9938
2031       81615.0113  0.3479  0.4481  0.8446  0.7929       89256.1616
2032       80808.2991  0.4674  0.5453  2.4040  0.8115      105335.5681
2033       94467.4661  0.3781  0.4312  1.0978  0.9929      100687.7150
2034       75891.4408  0.4052  0.4315  0.5943  0.9101       94868.0476
2035       72659.7406  0.3259  0.3331  0.3709  0.9969       93683.2384
2036       58201.4156  0.2444  0.2988  0.7792  0.8359       94717.1954
2037       50915.2196  0.3091  0.3060  0.8300  0.7683       82988.2291
2038       43287.2434  0.2261  0.3808  1.7860  0.7224       85263.6875
2039       78957.8361  0.1578  0.3717  2.7692  1.2623      104838.9682
2040      135132.2995  0.1391  0.2914  2.9099  1.7170      108219.4887
2041      128123.4144  0.2130  0.4343  1.2471  1.5200      103721.3622
2042      111647.5510  0.4079  0.3604  0.6067  1.2587       95924.5747
2043       56492.4504  0.6863  0.4048  0.6129  0.6886       84721.5351
2044       56630.6399  0.2712  0.3965  0.9219  0.6433       90074.0552
2045       52897.9861  0.3047  0.4037  0.5553  0.5222       80288.3613
