Year Ft Rg C
2019  3  1  3772.5061
2020  3  1  1174.1014
2021  3  1  1613.1795
2022  3  1  3570.1365
2023  3  1  5213.4249
2024  3  1  6666.1994
2025  3  1  6883.3856
2026  3  1 11017.0295
2027  3  1  9931.2707
2028  3  1  7334.7953
2029  3  1  8125.9920
2030  3  1  9422.7104
2031  3  1  8971.8263
2032  3  1 15920.6041
2033  3  1 11678.6566
2034  3  1  8206.7805
2035  3  1  8011.8550
2036  3  1  5600.3779
2037  3  1  5309.7113
2038  3  1  4845.1409
2039  3  1  5951.2451
2040  3  1  6774.0209
2041  3  1  9276.7493
2042  3  1  9516.9265
2043  3  1 10703.3904
2044  3  1  8453.8238
2045  3  1  9557.6154
