pseudo ref pts
2019       34901.2076  0.1881  0.2521  0.9917  1.2551       94953.8266
2020       35470.5788  0.1103  0.3229  0.9977  1.2733      101953.8464
2021       38677.0497  0.1150  0.3091  0.8114  1.0934       90209.2037
2022       62332.9556  0.1382  0.3450  1.2597  1.3639       97438.1780
2023       61580.3207  0.1482  0.2895  1.1470  1.1151       88211.6753
2024       75550.3863  0.2226  0.3763  0.9777  1.0249       84776.3326
2025      107044.8649  0.2035  0.4982  0.5297  1.3137       94446.9395
2026      100516.3181  0.3654  0.3445  0.6246  1.0767       88307.6729
2027       53258.3917  0.4745  0.2435  0.4999  0.5771       75406.2441
2028       48806.6614  0.2421  0.3369  1.7661  0.5310       83350.3113
2029       99216.8474  0.1465  0.2677  1.5527  0.9380       89560.2376
2030       91098.1393  0.3297  0.4136  1.4139  0.8266       83746.5208
2031      121391.3326  0.2461  0.4260  0.3958  1.1020       96060.2229
2032      128000.8034  0.3966  0.3982  0.5290  1.0842       91945.6317
2033       96466.1543  0.5085  0.4762  0.2722  0.9181       91992.9799
2034       81458.5421  0.5230  0.4825  0.8209  0.8986       93273.3227
2035       73966.4339  0.4741  0.3443  1.0084  0.9354       90544.8777
2036       59455.6169  0.2825  0.3003  1.5626  0.9007       89594.1308
2037       88194.0524  0.1976  0.2805  1.7468  1.4282       95621.1206
2038       78185.8732  0.1713  0.2108  1.5491  1.2416       89216.0493
2039      101533.9070  0.1583  0.2390  2.5261  1.5457      101887.3788
2040       92509.8305  0.1835  0.2646  1.6362  1.2292       94084.4108
2041       78557.3910  0.2111  0.2684  0.7308  0.9006       87065.7213
2042       55193.8727  0.2865  0.3877  0.1839  0.6190       83599.8285
2043       52022.3468  0.3465  0.4586  0.2348  0.5412       84265.4860
2044       51093.9235  0.2895  0.3839  0.3085  0.5340       81732.7825
2045       64911.4983  0.2313  0.3635  1.8047  0.6476       92716.7431
