Year Ft Rg C
2019  3  1  3669.3891
2020  3  1  1476.5469
2021  3  1  2350.2830
2022  3  1  4741.3438
2023  3  1  5799.3431
2024  3  1  5804.1745
2025  3  1  7355.2270
2026  3  1  6882.3220
2027  3  1 10000.1202
2028  3  1 12454.4422
2029  3  1 15613.5997
2030  3  1 21026.3437
2031  3  1 16607.4425
2032  3  1  5425.5189
2033  3  1  7207.4094
2034  3  1 10716.1551
2035  3  1  9113.9916
2036  3  1 10710.9067
2037  3  1 10427.2554
2038  3  1  9606.3692
2039  3  1 10325.7960
2040  3  1  9528.8110
2041  3  1 11419.9156
2042  3  1 15456.5067
2043  3  1 18026.1813
2044  3  1 19998.4322
2045  3  1 16020.6131
