pseudo ref pts
2019       30966.1776  0.3008  0.4073  1.1374  1.1268      107578.4167
2020       30130.1546  0.1756  0.4062  1.0307  1.1798      102081.5507
2021       34704.3076  0.2036  0.4746  0.7356  1.0758      100874.7400
2022       37607.6951  0.1956  0.3489  0.6505  0.9781       89094.6041
2023       65648.1999  0.1245  0.3130  0.8889  1.4209      104777.8511
2024       51971.6535  0.1881  0.3037  1.4663  0.9410       92365.6488
2025       70715.7498  0.2086  0.3675  1.6669  1.0559       96452.9240
2026       95485.0755  0.2108  0.3735  2.4954  1.1805       93700.5158
2027      133423.5154  0.1650  0.3628  1.1078  1.3926       98910.9093
2028      181862.3683  0.2904  0.4765  1.2474  1.6241      109265.1259
2029      180568.5590  0.2667  0.4134  0.6305  1.5111      107202.5764
2030      114217.1535  0.5051  0.3632  0.4531  0.9538      101412.8299
2031       89817.8828  0.8914  0.4920  0.7959  0.8681      103350.4215
2032       84537.5826  0.4430  0.5270  1.3830  1.0485      115274.1139
2033       89389.7335  0.4197  0.4519  2.6428  1.0854      106755.6436
2034       68760.9319  0.5132  0.4447  0.9599  0.9206       93516.0039
2035       61322.2804  0.4793  0.4078  1.0612  0.8667       88560.1333
2036       90696.9084  0.2151  0.3438  0.9071  1.1393       99103.8839
2037      124928.3163  0.1498  0.2696  0.8331  1.4249       89636.6019
2038       92251.6162  0.2899  0.3973  0.5826  1.0743       90160.2428
2039      134441.6269  0.2258  0.3735  1.3332  1.4523      106307.7205
2040      161887.7868  0.2942  0.3986  3.3747  1.5229      113857.4952
2041      170642.9871  0.3022  0.3966  2.8333  1.4286      107565.2461
2042      214834.4473  0.2962  0.3288  1.6278  1.6376      104476.0005
2043      188423.2836  0.3725  0.4074  0.7290  1.3795      107808.5448
2044      179705.7402  0.3773  0.3573  0.4701  1.3397      108202.9721
2045      166293.3961  0.3578  0.2775  1.5859  1.4619      104649.5808
