Year Ft Rg C
2019  3  1  3773.4946
2020  3  1  1297.8309
2021  3  1  2018.4859
2022  3  1  3448.4705
2023  3  1  4172.7907
2024  3  1  7576.3795
2025  3  1  9531.9575
2026  3  1 10808.4697
2027  3  1 11405.5794
2028  3  1 10532.5620
2029  3  1  9557.3474
2030  3  1 11421.1995
2031  3  1 13457.1489
2032  3  1 14342.2131
2033  3  1 14178.8822
2034  3  1 12457.4872
2035  3  1 10524.2651
2036  3  1 11432.1628
2037  3  1 21601.3645
2038  3  1 27215.1771
2039  3  1 25592.5931
2040  3  1 28486.5794
2041  3  1 16716.3143
2042  3  1  9934.3413
2043  3  1 12015.3778
2044  3  1 14140.8100
2045  3  1 17051.8982
