pseudo ref pts
2019       38593.0797  0.1851  0.2377  1.4447  1.5734      102491.8735
2020       36106.9526  0.1387  0.2798  1.3134  1.4160       96704.4597
2021       33093.7686  0.1581  0.3280  0.5922  0.9596       91691.8352
2022       62446.3225  0.1096  0.2589  1.0717  1.4279       95037.8924
2023      107278.3674  0.0961  0.3051  1.6996  2.0712      103834.7169
2024      130311.1917  0.2467  0.3186  3.3007  1.9298      105012.6126
2025      127642.1440  0.3543  0.4316  2.1126  1.6578       98298.7755
2026       95470.7447  0.6505  0.4625  1.0489  1.1189       90805.5307
2027      124729.4804  0.4735  0.3833  1.4726  1.3372       97817.1613
2028       96654.1508  0.6334  0.4659  1.3349  1.0764       89559.8187
2029      114364.9773  0.5113  0.4040  1.4606  1.0735       89146.7787
2030       78366.7325  0.6528  0.4806  0.5445  0.7497       81670.2684
2031       93215.3698  0.5477  0.4915  0.4575  0.9557       88134.1632
2032       64096.7596  0.6803  0.4587  0.4119  0.6589       84354.1324
2033       71203.0741  0.7232  0.4700  0.9204  0.7327       86064.0066
2034       74079.4548  0.4245  0.3591  3.5902  0.7893       83802.8217
2035      150103.0665  0.2079  0.2387  4.4388  1.2652       86004.1513
2036      167082.6723  0.1969  0.2862  2.3026  1.1773       81040.4155
2037      170256.1444  0.2230  0.3862  0.2208  1.0574       87006.0885
2038      218861.8286  0.1777  0.2325  0.1225  1.1277       85517.4205
2039      273283.9260  0.2124  0.3400  0.1700  1.3190       95801.4907
2040      212194.3928  0.5798  0.5299  0.9510  1.1032       98880.1666
2041      151587.7920  0.7243  0.4316  2.7418  0.9418      100103.3948
2042       97687.1233  0.5609  0.3305  4.0808  0.7677       92062.0115
2043      118341.8113  0.5074  0.3812  2.1028  0.9860      104904.2784
2044      115837.9368  0.3708  0.3851  1.9175  1.0471       96612.0009
2045       85863.7326  0.5417  0.5048  0.6528  0.7795       92253.2996
