Year Ft Rg C
2019  3  1  3180.1301
2020  3  1  1047.8894
2021  3  1  1943.5918
2022  3  1  3017.1788
2023  3  1  5321.2030
2024  3  1  8212.1209
2025  3  1  5143.2830
2026  3  1  7350.2733
2027  3  1  7256.3944
2028  3  1  5359.8207
2029  3  1  5600.9740
2030  3  1  9822.7441
2031  3  1  9218.5118
2032  3  1  7819.3399
2033  3  1  9241.9078
2034  3  1  8539.7800
2035  3  1  7403.7017
2036  3  1  5950.8402
2037  3  1  6754.8599
2038  3  1  8457.5912
2039  3  1 12146.7005
2040  3  1 11695.2472
2041  3  1 11159.5421
2042  3  1 12250.4455
2043  3  1  8900.6788
2044  3  1  9198.5592
2045  3  1  8957.1885
