pseudo ref pts
2019       39000.8061  0.2522  0.3344  1.4961  1.6857      103060.8738
2020       41461.4201  0.1621  0.3636  1.4367  1.8198      102297.5811
2021       50390.4346  0.1539  0.3777  1.1085  1.6649       95427.6057
2022       69572.5101  0.1591  0.3492  1.3065  1.8400      102694.5926
2023       77752.9908  0.1643  0.3919  0.9302  1.6664      103269.2081
2024      120681.6449  0.1829  0.3406  1.1823  2.1454      112040.5155
2025       88127.1297  0.1952  0.2898  0.7050  1.4234      102427.5032
2026       69736.3242  0.2933  0.2995  1.0443  1.1080       94523.4392
2027       63394.7509  0.3399  0.3298  3.1237  1.0248       97353.2750
2028       62554.2883  0.1978  0.2560  2.4476  0.9466       85538.3630
2029      101040.9114  0.1195  0.2409  2.0720  1.3376       93076.3321
2030       83811.0435  0.2159  0.3035  0.6413  1.1245       89340.4708
2031       77386.6797  0.2802  0.3746  0.5300  0.9874       85060.8187
2032       92915.3569  0.2560  0.4501  0.6439  1.0373       92733.9883
2033       67698.4529  0.2658  0.3429  0.3423  0.7642       76747.6377
2034       53548.7717  0.3853  0.4564  0.5249  0.6264       77652.2347
2035       39503.9698  0.5249  0.5495  0.5088  0.4906       77222.2645
2036       50001.0336  0.2892  0.4792  1.9575  0.6396       78162.1427
2037       99339.5464  0.1440  0.3155  1.7554  1.1607       90750.5646
2038      106779.6072  0.1957  0.3025  2.1525  1.0675       92779.0183
2039      107702.7624  0.2668  0.4014  0.4639  1.0034       89737.2912
2040      135305.7908  0.2401  0.3068  0.8880  1.1828       91600.9983
2041      163391.9041  0.1596  0.1883  0.7825  1.2919       90218.0956
2042      116233.1553  0.2777  0.3511  1.6869  0.9581       91681.3871
2043      142424.0109  0.1968  0.3096  1.0621  1.1878       97344.2490
2044      157586.7571  0.2517  0.3152  0.5345  1.3627       95611.8504
2045      124388.6073  0.2199  0.2192  0.3383  1.2770       87937.9180
