Year Ft Rg C
2019  3  1  3536.7638
2020  3  1  2071.8102
2021  3  1  2946.4305
2022  3  1  4336.2429
2023  3  1  5837.3734
2024  3  1  5379.1925
2025  3  1  6514.2849
2026  3  1  4290.2625
2027  3  1  6436.7429
2028  3  1 10276.2069
2029  3  1 13328.4101
2030  3  1 27345.7262
2031  3  1 19702.0062
2032  3  1 15992.0972
2033  3  1 13525.3769
2034  3  1 10464.8451
2035  3  1  6509.8810
2036  3  1  5848.5971
2037  3  1  4882.6860
2038  3  1  5789.5217
2039  3  1  6679.9477
2040  3  1  4253.5555
2041  3  1  4996.7012
2042  3  1  7959.1088
2043  3  1 13027.5415
2044  3  1 17512.8208
2045  3  1 20672.2818
