pseudo ref pts
2019       27601.4463  0.3789  0.5487  1.1000  1.0455      112994.0801
2020       34021.7992  0.2017  0.3928  1.1940  1.2807      104365.1367
2021       88098.6488  0.0815  0.2739  1.6731  2.6315      111232.1126
2022      114651.7509  0.1409  0.2778  1.9236  2.7963      113153.7193
2023      122124.0890  0.1302  0.2088  1.8904  2.5699      101703.9979
2024       99816.7860  0.1795  0.2549  1.9380  1.8544       99020.6329
2025       57040.4074  0.2565  0.2088  1.4776  0.9298       78039.9781
2026       72110.0768  0.1216  0.2193  2.3136  0.9715       81996.4375
2027      124974.9267  0.1054  0.2772  2.9599  1.2546       93274.2688
2028      228077.9384  0.1286  0.2647  1.6462  1.8540       97994.1449
2029      204503.5346  0.1516  0.3117  0.5835  1.4079       97177.3818
2030      226066.7893  0.2674  0.3470  0.3815  1.3700      100467.0909
2031      137001.0504  0.3669  0.3712  0.3779  0.8797       90480.0308
2032      121594.0543  0.2614  0.2716  0.4278  0.8616       86448.3285
2033      104386.7874  0.3076  0.2464  0.4629  0.8188       80064.4716
2034       69269.4495  0.2160  0.2301  0.3228  0.6931       81162.7195
2035       52430.2640  0.4144  0.3103  0.9370  0.6007       75054.0802
2036       34065.8138  0.3755  0.3428  0.8014  0.4412       71429.9797
2037       47271.6819  0.2900  0.4047  1.9863  0.6396       85474.3006
2038       32357.1992  0.3970  0.4426  0.5604  0.4637       80044.0385
2039       49767.9989  0.3470  0.4917  1.0129  0.6475       89020.5383
2040       49779.0706  0.3311  0.5463  0.5674  0.6242       88709.6172
2041       70860.0124  0.2103  0.4138  4.2433  0.9134       98535.5727
2042       95483.8451  0.1929  0.3064  3.8176  0.8502       93457.9529
2043      184456.4179  0.1185  0.2683  5.0677  1.0914       92021.8130
2044      296605.2317  0.1231  0.2860  0.5158  1.4278      103067.3450
2045      296840.6951  0.1535  0.3511  0.1696  1.2022       97050.3759
