Year Ft Rg C
2019  3  1  4536.2271
2020  3  1  1849.0742
2021  3  1  3187.7885
2022  3  1  4985.7894
2023  3  1  3942.6975
2024  3  1  4484.3358
2025  3  1  1027.1658
2026  3  1   797.9665
2027  3  1  1845.3415
2028  3  1  3081.0432
2029  3  1  3675.6024
2030  3  1  3480.2522
2031  3  1  2682.7884
2032  3  1  1718.8600
2033  3  1  2156.2757
2034  3  1  3738.9689
2035  3  1  5587.9664
2036  3  1  5054.0732
2037  3  1  4085.5576
2038  3  1  2856.9805
2039  3  1  4152.6044
2040  3  1  9048.5622
2041  3  1  8787.8870
2042  3  1  7069.2869
2043  3  1  4419.5483
2044  3  1  4567.6880
2045  3  1  3919.2772
