pseudo ref pts
2019       31461.3014  0.4675  0.4683  1.3092  1.2013       30480.6403
2020       33331.2645  0.5153  0.5577  1.3620  1.2566       33876.0575
2021       39519.5619  0.5191  0.6449  1.5685  1.5029       37774.9067
2022       29282.7691  1.2694  0.6557  1.0116  1.2062       35348.8578
2023       17096.5463  1.8061  0.4337  0.6581  0.9178       30764.2297
2024        8549.3556  1.2432  0.5598  1.3205  0.7178       30832.4681
2025       13251.4648  0.5760  0.5641  2.1625  0.9296       33646.0030
2026       15235.5798  0.2936  0.4669  2.7152  0.8987       30237.1340
2027       21001.9274  0.2419  0.4476  0.9931  1.1615       31435.9986
2028       17340.7073  0.4789  0.4894  0.5510  0.7966       26208.3388
2029       29285.3438  0.2431  0.3460  0.4261  1.1090       29274.4717
2030       28767.3684  0.2535  0.3324  0.3860  0.9970       31613.7678
2031       29023.8207  0.2640  0.3475  1.5832  1.0098       33532.7205
2032       23309.9760  0.2964  0.3126  3.5739  0.7420       29335.7820
2033       40631.7137  0.2237  0.3828  7.7866  1.0731       33124.0277
2034       64544.0618  0.1939  0.3141  1.6761  1.4972       32787.5752
2035       73146.8016  0.1762  0.3151  0.2855  1.6064       34759.0167
2036       92214.0842  0.2785  0.3801  0.3278  1.9204       35100.2957
2037       69481.2521  0.3463  0.3705  3.6188  1.5886       35984.2364
2038       53575.2495  0.3912  0.3179  9.2570  1.1436       31452.0880
2039       91138.4058  0.2217  0.3452  9.4131  1.6458       31648.0705
2040      117427.5001  0.2113  0.3446  0.3398  1.9656       34598.2952
2041       84239.1274  0.2840  0.3827  0.2798  1.3172       34227.5185
2042       63442.8457  0.4470  0.3810  0.2151  0.8969       30503.2413
2043       58784.5736  0.4024  0.2698  1.0601  0.8852       27804.4719
2044       30606.8420  0.3103  0.2929  0.3720  0.6324       26442.6815
2045       21537.4384  0.3232  0.2447  0.3767  0.5255       26533.1334
