Year Ft Rg C
2019  3  1  3405.6106
2020  3  1  2406.3988
2021  3  1  2982.8659
2022  3  1  2995.3462
2023  3  1  3295.9028
2024  3  1  3384.8086
2025  3  1  3355.8574
2026  3  1  3610.3766
2027  3  1  2948.4847
2028  3  1  1128.5812
2029  3  1  1917.3292
2030  3  1  3607.5857
2031  3  1  3622.5778
2032  3  1  5005.8447
2033  3  1  3993.3513
2034  3  1  5019.7456
2035  3  1  5124.0842
2036  3  1  3779.7085
2037  3  1  3130.3884
2038  3  1  1196.8232
2039  3  1  1489.0377
2040  3  1  2127.3761
2041  3  1  1818.9938
2042  3  1  1235.7379
2043  3  1  1253.7221
2044  3  1  1182.1156
2045  3  1  1482.0804
