pseudo ref pts
2019       21822.7269  0.4743  0.4715  0.8598  0.8025       31127.8052
2020       31853.0782  0.2040  0.3356  1.2165  1.1783       34552.3802
2021       35113.8629  0.2046  0.3470  2.3591  1.2524       34106.9454
2022       37170.2930  0.3639  0.4522  2.5446  1.2142       34110.4605
2023       40203.9186  0.2758  0.3489  2.2131  1.2094       34413.2874
2024       44238.6698  0.2154  0.3280  0.7332  1.2405       37093.0080
2025       47367.9974  0.1693  0.3165  0.1971  1.4445       35533.1405
2026       25152.2759  0.3488  0.3419  0.2562  0.7888       30974.5962
2027       19316.1658  0.4466  0.2753  1.2981  0.6857       27675.3268
2028       26319.1579  0.1337  0.2996  5.9135  0.9484       28670.9724
2029       30051.8029  0.1322  0.3222  2.1947  0.9431       27305.2706
2030       27646.9967  0.2956  0.4151  0.2343  0.7974       25855.2384
2031       38554.7413  0.2218  0.3837  0.4323  1.0807       27946.8208
2032       47261.3952  0.3708  0.4611  1.0671  1.0750       31705.0058
2033       59558.2995  0.3601  0.5650  2.9800  1.3122       33165.2314
2034       74294.4514  0.3795  0.4035  1.8353  1.5841       34917.0653
2035       91349.9881  0.3234  0.3569  1.0491  2.0714       38486.5938
2036       75077.7380  0.4509  0.3282  1.1037  2.0071       38360.9060
2037       41317.8696  0.8795  0.3207  1.7764  1.3792       37054.5476
2038       24063.9675  0.6828  0.4813  1.8035  1.0934       34890.3637
2039       36976.3987  0.3824  0.5231  2.8856  1.7639       41813.1651
2040       23542.3051  0.6121  0.4340  0.4887  1.2028       34582.1600
2041       23440.2280  0.6409  0.4230  0.7275  1.3947       34990.9867
2042       26258.6448  0.2929  0.3839  0.7975  1.6565       35922.1245
2043       17834.1024  0.3623  0.3467  1.2875  1.1092       31544.3057
2044       25048.4307  0.1468  0.3036  2.8055  1.6614       34756.0141
2045       23675.5402  0.1638  0.3473  2.4882  1.4363       34292.4040
