Year Ft Rg C
2019  3  1  3292.2957
2020  3  1  1750.1283
2021  3  1  1875.4946
2022  3  1  2788.1955
2023  3  1  3239.0612
2024  3  1  7782.3416
2025  3  1  6052.6157
2026  3  1  4303.2576
2027  3  1  5152.3013
2028  3  1  5776.4819
2029  3  1  6472.0973
2030  3  1  7385.6237
2031  3  1 10626.1558
2032  3  1 11003.0880
2033  3  1 14038.9367
2034  3  1 12710.1209
2035  3  1 13735.7269
2036  3  1 12702.0536
2037  3  1 12193.2709
2038  3  1 17287.9836
2039  3  1 16365.9136
2040  3  1  5751.1988
2041  3  1 11843.0577
2042  3  1 22545.9235
2043  3  1 17836.2216
2044  3  1 15659.2556
2045  3  1 12796.1427
