pseudo ref pts
2019       66877.8131  0.2311  0.4166  2.1503  2.2917      114615.3502
2020       82767.7791  0.2111  0.2879  2.3108  2.7897      115060.8869
2021       60004.7390  0.2931  0.4119  1.2258  1.6835      110980.2406
2022       61146.4290  0.1978  0.2718  0.9132  1.4457       97728.9345
2023      101597.1039  0.1798  0.3639  1.3305  2.1814      113251.4519
2024       99621.1441  0.3331  0.3290  1.7262  1.9750      111168.7968
2025       90362.8466  0.3609  0.3011  3.0891  1.7962      106844.4495
2026       70035.2443  0.3140  0.2977  2.5796  1.3153       98559.8395
2027       86769.4766  0.1788  0.2223  2.4039  1.4157       94679.5076
2028       73717.7629  0.2414  0.3115  0.6604  1.1057       86698.2517
2029       85528.2560  0.2674  0.4294  1.0903  1.2058       94201.7143
2030      106457.5010  0.3323  0.4025  1.2427  1.2857       91926.5959
2031      109503.6512  0.2823  0.4195  2.2778  1.3075      103598.5530
2032       80109.6515  0.4763  0.4928  0.8004  0.9028       91013.8150
2033       63954.2033  0.6826  0.5853  0.3228  0.6765       87352.0525
2034       88296.8406  0.3174  0.3912  0.6756  0.9508       92154.9755
2035       86204.5175  0.3762  0.3970  1.2202  0.8625       92347.3367
2036      135464.9297  0.4297  0.5683  3.6392  1.2116      110619.2501
2037      142835.6721  0.3185  0.5097  1.3850  1.3086      112074.2980
2038      144113.2285  0.5987  0.5305  0.6088  1.4192      109155.4521
2039       76471.9468  0.9510  0.4483  1.7113  0.8861       96698.6362
2040       95321.7342  0.3428  0.4304  2.6513  1.0169      104044.0179
2041      128990.1562  0.2453  0.4187  3.3724  1.0398      100652.5206
2042      151538.5286  0.2935  0.3780  0.1286  1.2535       95580.0621
2043      126033.2222  0.3461  0.3631  0.1275  1.0555       93792.6396
2044      118784.5506  0.3803  0.4070  0.2091  0.9650       97432.9301
2045       86259.3192  0.4421  0.3757  2.0071  0.7719       96392.4407
