Year Ft Rg C
2019  3  1  3536.7638
2020  3  1  2349.8267
2021  3  1  2633.6035
2022  3  1  3574.2639
2023  3  1  3185.7153
2024  3  1  1745.0608
2025  3  1  1897.6903
2026  3  1   845.7869
2027  3  1  1416.5585
2028  3  1  3514.8160
2029  3  1  4852.9921
2030  3  1  9629.1207
2031  3  1  6322.0713
2032  3  1  4632.2109
2033  3  1  3838.8112
2034  3  1  3654.1328
2035  3  1  1948.8260
2036  3  1  1375.9911
2037  3  1  1641.6232
2038  3  1  1925.5153
2039  3  1  2252.1416
2040  3  1  1716.5532
2041  3  1  2385.1569
2042  3  1  2930.4827
2043  3  1  5749.2924
2044  3  1  9256.9109
2045  3  1 10022.1507
