pseudo ref pts
2019       27601.4463  0.3811  0.5487  1.1000  1.0455       37664.6934
2020       29774.7586  0.3058  0.3989  1.1940  1.1208       34775.5737
2021       56974.4088  0.1497  0.2781  1.6728  2.1081       37009.2789
2022       57517.2273  0.2249  0.2821  1.9226  2.2163       37649.9105
2023       48035.2674  0.2475  0.2104  1.8884  1.9654       33868.2423
2024       31473.8064  0.2221  0.2549  1.9357  1.4588       32995.2475
2025       17279.8458  0.3146  0.2088  1.4758  0.7881       26020.9281
2026       21698.1997  0.1006  0.2176  2.3121  0.8934       27360.0259
2027       39731.9809  0.0854  0.2750  2.9597  1.2657       31168.7066
2028       74935.7926  0.1255  0.2647  1.6473  1.9096       32734.3477
2029       67946.1031  0.1520  0.3141  0.5842  1.4583       32313.9075
2030       75363.2281  0.2684  0.3470  0.3819  1.3942       33576.0115
2031       45649.9228  0.3513  0.3712  0.3781  0.8842       30210.1737
2032       40896.1407  0.2410  0.2716  0.4279  0.8650       28788.8862
2033       35721.8662  0.2806  0.2464  0.4628  0.8258       26643.8657
2034       24209.3976  0.2095  0.2301  0.3226  0.7041       27103.3264
2035       18279.1325  0.3834  0.3103  0.9362  0.6078       24995.5770
2036       11898.3509  0.3108  0.3428  0.8008  0.4440       23751.7144
2037       16607.5175  0.2824  0.4047  1.9851  0.6409       28519.8851
2038       11240.1114  0.3862  0.4460  0.5603  0.4631       26572.8240
2039       17093.4458  0.3404  0.4917  1.0129  0.6439       29737.9075
2040       16953.4105  0.3429  0.5548  0.5675  0.6178       29430.7354
2041       23877.6292  0.2370  0.4203  4.2448  0.9042       32737.0019
2042       31617.6273  0.1958  0.3064  3.8192  0.8393       31273.1924
2043       61315.3828  0.1287  0.2704  5.0699  1.0832       30721.8391
2044       98373.2150  0.1422  0.2905  0.5162  1.4201       34370.1559
2045       96976.3665  0.1775  0.3538  0.1698  1.1985       32504.0130
