Year Ft Rg C
2019  3  1  3473.9756
2020  3  1  2336.2210
2021  3  1  2315.8312
2022  3  1  3856.8301
2023  3  1  5657.1469
2024  3  1  7607.7466
2025  3  1  8789.0583
2026  3  1  9317.7322
2027  3  1 10506.3356
2028  3  1  7317.8811
2029  3  1  6616.7634
2030  3  1 10822.0811
2031  3  1 12692.6470
2032  3  1 14629.7578
2033  3  1 18368.8695
2034  3  1 30479.8650
2035  3  1 26363.2217
2036  3  1 13669.9138
2037  3  1 14807.3711
2038  3  1 17960.0767
2039  3  1 14634.2666
2040  3  1 14501.3848
2041  3  1 11589.6239
2042  3  1  3084.3913
2043  3  1  3440.5308
2044  3  1  3499.8538
2045  3  1  4929.1755
