pseudo ref pts
2019       25686.2621  0.5370  0.5844  1.0423  1.0565       93100.8366
2020       20795.1490  0.3264  0.4227  0.7222  0.8570       81921.1331
2021       40928.8192  0.1376  0.2748  1.1661  1.3480       87498.4327
2022       80171.5265  0.1063  0.2816  1.7047  1.7898      102138.5750
2023       91896.7383  0.1123  0.3185  1.5650  1.6965       99396.6940
2024       72460.8701  0.3526  0.4342  0.6856  1.0077       89530.9347
2025       69742.7992  0.3189  0.3500  0.4081  0.8956       79156.3794
2026       68031.2781  0.2648  0.3608  0.5012  0.8589       85302.7848
2027       55256.3919  0.4062  0.4821  0.7324  0.6310       84627.7386
2028       65407.7973  0.3553  0.6435  1.0612  0.7290       90012.6367
2029       46160.0729  0.5546  0.7594  0.6634  0.5098       81963.5001
2030       47686.2179  0.5152  0.5594  0.4749  0.4981       76368.8198
2031       63489.2027  0.4639  0.5246  1.5793  0.6428       82243.6943
2032       85430.2607  0.3951  0.5015  1.6789  0.7174       91020.6660
2033      132163.5446  0.3115  0.5201  1.5352  0.8839       91674.1364
2034      198497.2042  0.3864  0.5352  0.1266  1.2453      101319.0655
2035      195288.5037  0.3750  0.3601  0.4425  1.1849       90065.9244
2036      279086.3332  0.3454  0.3133  1.2973  1.6700       92923.4493
2037      234602.5770  0.4150  0.2987  7.6082  1.4961       84920.0441
2038      195405.6190  0.3184  0.2695  1.6429  1.4209       92156.4284
2039      172037.2806  0.4044  0.4040  0.6116  1.5121      102718.7039
2040      145233.0607  0.5811  0.4517  0.5481  1.5773      109034.6036
2041       68546.1963  0.9357  0.3504  0.5166  0.9090       96515.8094
2042       31922.0266  0.3944  0.3532  1.1593  0.6255       89434.3868
2043       51664.2831  0.3851  0.3886  2.2061  0.9326       97724.4750
2044       60678.5259  0.1895  0.3965  2.3291  1.1283      101287.3980
2045      114361.4634  0.1012  0.2999  1.0263  2.0696      109455.8893
