Year Ft Rg C
2019  3  1  3405.6106
2020  3  1  1686.9933
2021  3  1  2356.3909
2022  3  1  4032.8312
2023  3  1  5096.2661
2024  3  1  7342.6077
2025  3  1  8767.5238
2026  3  1 11652.6571
2027  3  1 10151.9185
2028  3  1  3919.6871
2029  3  1  5585.4100
2030  3  1 12572.7258
2031  3  1 12288.8533
2032  3  1 18409.8946
2033  3  1 15108.5482
2034  3  1 29668.3960
2035  3  1 24765.4897
2036  3  1 12043.7410
2037  3  1 12631.1636
2038  3  1  3086.0897
2039  3  1  4854.8975
2040  3  1  9354.7595
2041  3  1  9053.0548
2042  3  1  6574.2762
2043  3  1  5555.9902
2044  3  1  2676.1500
2045  3  1  4488.4288
