pseudo ref pts
2019       21822.7269  0.4716  0.4715  0.8598  0.8025       93383.4157
2020       36464.7987  0.1317  0.3305  1.2165  1.3489      103174.8025
2021       53810.8776  0.1125  0.3364  2.3600  1.5587      102638.0772
2022       76555.8580  0.2242  0.4418  2.5461  1.5545      102738.8161
2023      103446.5911  0.1488  0.3435  2.2146  1.5829      103100.5837
2024      130907.2330  0.1859  0.3255  0.7335  1.5492      110955.1230
2025      146938.6789  0.1469  0.3141  0.1971  1.6711      106774.4808
2026       81185.2846  0.3468  0.3419  0.2563  0.8553       92870.3155
2027       62070.3452  0.4578  0.2732  1.2988  0.7059       83405.6143
2028       81786.0269  0.1487  0.2996  5.9167  0.9470       85983.0426
2029       91042.3819  0.1402  0.3222  2.1954  0.9218       81667.2835
2030       82794.8756  0.3244  0.4151  0.2342  0.7790       77646.0303
2031      113710.5891  0.2448  0.3867  0.4319  1.0614       83452.3675
2032      137709.5703  0.4142  0.4646  1.0663  1.0612       94970.1950
2033      171410.9647  0.4133  0.5650  2.9789  1.2949       99832.9202
2034      211470.3628  0.5106  0.4097  1.8352  1.5655      104748.9779
2035      241176.2950  0.4357  0.3596  1.0491  2.0111      115723.4775
2036      184696.8239  0.5363  0.3282  1.1037  1.9120      115230.2403
2037      101539.0473  1.2725  0.3231  1.7775  1.3102      110920.3524
2038       59899.3661  0.6500  0.4776  1.8050  1.0706      104885.6356
2039      103146.8059  0.3432  0.5231  2.8884  1.8692      125352.8829
2040       69540.6378  0.6329  0.4373  0.4891  1.2908      103862.1791
2041       69485.3824  0.6717  0.4263  0.7279  1.4890      105143.1346
2042       77295.1567  0.3553  0.3898  0.7982  1.6929      107429.0553
2043       50644.1279  0.4283  0.3494  1.2884  1.0931       94612.2816
2044       70022.2706  0.1404  0.3013  2.8076  1.6275      104211.4571
2045       68586.6382  0.1704  0.3447  2.4879  1.4334      103071.2472
