Year Ft Rg C
2019  3  1  2799.2139
2020  3  1  1512.4426
2021  3  1  1803.1091
2022  3  1  2599.9212
2023  3  1  3015.5455
2024  3  1  2043.1236
2025  3  1  2918.4616
2026  3  1  3044.9982
2027  3  1  3041.5465
2028  3  1  5567.2197
2029  3  1  7237.3537
2030  3  1  6787.4801
2031  3  1  6114.7502
2032  3  1  5862.5913
2033  3  1  4764.2319
2034  3  1  3284.8481
2035  3  1  3573.6485
2036  3  1  5312.8950
2037  3  1  5303.2554
2038  3  1  2589.1343
2039  3  1  2646.9120
2040  3  1  2828.6507
2041  3  1  3363.7700
2042  3  1  3850.6306
2043  3  1  3453.3112
2044  3  1  4682.3636
2045  3  1  3766.8584
