pseudo ref pts
2019       10343.4740  0.4945  0.2879  0.5563  0.4626       25237.0221
2020       13827.9153  0.1251  0.2867  0.7302  0.6405       28033.3881
2021       22111.8382  0.1062  0.3377  1.0945  0.9365       30673.3060
2022       31418.8131  0.1859  0.4398  1.3518  1.2069       33427.7839
2023       18000.4235  0.3412  0.4831  0.9219  0.6483       27494.1726
2024       15445.5208  0.3781  0.5630  0.9202  0.5182       26369.4780
2025       18993.0503  0.3770  0.5099  0.8076  0.5167       25145.6874
2026       14963.6846  0.5131  0.5363  0.8811  0.3826       22726.5797
2027       21431.7726  0.4225  0.5236  0.6109  0.4977       23303.7963
2028       27541.6017  0.3852  0.4505  0.8906  0.5248       24102.7403
2029       29161.0668  0.3327  0.3703  0.1441  0.5029       23867.8079
2030       48509.5469  0.2066  0.3157  0.2834  0.7542       27357.3275
2031       40671.9572  0.1933  0.3024  0.1193  0.6578       27088.1667
2032       26382.0433  0.4030  0.3882  0.4887  0.4819       24624.3863
2033       26200.7426  0.3694  0.3343  1.1737  0.5415       25778.1576
2034       37968.9122  0.1751  0.3065  3.1681  0.8412       28285.9451
2035       51728.6664  0.1807  0.3437  2.1691  1.0970       28255.6072
2036       51984.4470  0.2532  0.2996  0.5927  1.1584       28913.7264
2037       55618.2078  0.2219  0.2678  1.0777  1.3302       30629.7522
2038       43683.2276  0.1733  0.2100  0.6915  1.0467       28618.3288
2039       48305.9815  0.1765  0.2127  1.8593  1.0811       29347.9243
2040       27632.5958  0.2401  0.2712  0.6688  0.6471       28090.5653
2041       55027.5207  0.1727  0.2992  1.5707  1.1906       32834.4959
2042       57268.8751  0.2364  0.3926  0.6867  1.2489       36157.0215
2043       46915.7030  0.3876  0.5275  0.5410  1.0622       35116.1777
2044       31739.9482  0.8482  0.5936  0.5392  0.7753       32421.0483
2045       17916.5515  1.0853  0.4976  0.5895  0.5685       31308.3594
