Year Ft Rg C
2019  3  1  2767.5732
2020  3  1  2541.4453
2021  3  1  2682.5140
2022  3  1  2870.0887
2023  3  1  2812.3704
2024  3  1  2777.6022
2025  3  1  2474.0251
2026  3  1  2351.1529
2027  3  1  2420.2268
2028  3  1  2453.0109
2029  3  1  2505.3779
2030  3  1  3189.8029
2031  3  1  2801.8193
2032  3  1  2655.9959
2033  3  1  2739.8559
2034  3  1  3095.4102
2035  3  1  2742.7028
2036  3  1  2794.1104
2037  3  1  2917.0639
2038  3  1  2865.0900
2039  3  1  2964.6491
2040  3  1  3403.7307
2041  3  1  2873.4454
2042  3  1  3128.7210
2043  3  1  3184.9117
2044  3  1  2827.6370
2045  3  1  2925.2668
