pseudo ref pts
2019       29572.1428  0.3353  0.3309  0.9734  1.0816       14394.8639
2020       48783.7410  0.2923  0.4213  1.6093  1.6182       17324.4178
2021       42110.4932  0.3475  0.5319  1.0206  1.4428       17558.6448
2022       38816.3475  0.6326  0.3359  0.7389  1.5032       16451.9473
2023       14569.0579  4.5502  0.3751  0.8100  0.9126       15695.5086
2024        5036.5753     NaN  0.5692  1.5693  0.7903       17302.1779
2025        4382.1358     NaN  0.6880  2.1949  0.7328       17235.8206
2026        2022.0572     NaN  0.4102  0.8349  0.5964       14986.4773
2027        2849.9187     NaN  0.3712  0.8548  1.0291       16425.1318
2028        3285.5076     NaN  0.4761  1.6539  1.2841       18278.3940
2029        3271.7481  2.6494  0.4029  1.4866  1.1144       16333.1862
2030        4414.9500  1.0199  0.4221  1.2582  1.1275       16128.2832
2031        4745.8642  1.0111  0.4636  0.4844  1.2304       15566.3413
2032        3860.2753  1.4461  0.4452  0.7278  0.9388       14954.3217
2033        4125.6159  1.2500  0.4127  0.9851  0.7620       15299.1246
2034        6056.0642  0.7099  0.3509  1.5623  0.9887       14868.1040
2035        6538.5263  0.5758  0.3255  0.8814  0.9959       14068.9442
2036        5719.9626  0.5937  0.3490  0.5517  0.9123       15000.1067
2037        4613.1765  0.7388  0.3860  0.6936  0.6685       14588.3414
2038        5408.8751  0.6278  0.3964  0.6693  0.7024       14892.2263
2039        5594.2845  0.7451  0.4916  0.5282  0.6796       14789.1048
2040        4937.9097  0.8564  0.3967  0.2320  0.6695       13501.7561
2041        3813.6138  1.1862  0.3837  0.6590  0.6148       13399.7991
2042        5149.2902  0.9467  0.4175  1.8774  0.8770       16287.2720
2043        5087.6311  0.7635  0.3336  3.8580  0.8154       14414.8186
2044        4012.4763  0.8745  0.3924  1.0111  0.6127       13056.7740
2045        5665.3679  0.5400  0.4376  0.8943  0.7846       14408.8291
