Year Ft Rg C
2019  3  1  3751.3969
2020  3  1  2373.6226
2021  3  1  2467.8715
2022  3  1  1987.9929
2023  3  1  1622.9432
2024  3  1  1845.0100
2025  3  1  1577.4236
2026  3  1  3100.5418
2027  3  1  2835.3620
2028  3  1  3109.7753
2029  3  1  4022.0177
2030  3  1  4593.1279
2031  3  1  4134.4694
2032  3  1  7831.5227
2033  3  1  6632.7507
2034  3  1  6025.4442
2035  3  1  4760.9217
2036  3  1  2602.0401
2037  3  1  1312.0652
2038  3  1   701.7257
2039  3  1   906.3462
2040  3  1   688.1509
2041  3  1  1418.6465
2042  3  1  2975.4665
2043  3  1  2369.0739
2044  3  1  2190.7192
2045  3  1  3564.9484
