pseudo ref pts
2019       31818.7101  0.2336  0.2505  0.9951  1.0057       30393.0438
2020       48261.1388  0.0978  0.1537  1.3033  1.5022       30804.9167
2021       38257.5392  0.1238  0.1977  0.9298  1.2199       30790.6951
2022       28066.3602  0.1443  0.2253  0.9720  0.9433       30339.5991
2023       19158.9190  0.2330  0.2806  0.5064  0.6347       27366.3150
2024       27215.8261  0.1276  0.2442  1.2574  0.8403       29021.9667
2025       32342.1559  0.1025  0.2401  1.1408  1.0133       30884.0104
2026       21586.4769  0.2351  0.2568  2.0231  0.6341       27572.8514
2027       24432.4749  0.2515  0.2957  1.1662  0.6670       26164.9423
2028       41103.4020  0.1520  0.2958  1.8858  0.9630       29931.5392
2029       45671.9735  0.1397  0.3041  0.7848  0.9528       30872.9235
2030       42005.6313  0.2595  0.3939  0.5184  0.8089       29712.8587
2031       50644.5299  0.2384  0.3906  0.5545  0.8350       30711.5391
2032       66840.2089  0.3320  0.4734  0.5654  1.1113       34780.2794
2033       52031.7864  0.3945  0.5355  0.5396  0.9097       34668.7159
2034       36332.9612  0.7046  0.5332  0.2687  0.7178       31198.6665
2035       51614.8841  0.4939  0.3379  0.5924  1.1606       33208.9082
2036       35418.1871  0.4430  0.2902  1.3078  1.1574       34070.9679
2037       28345.0724  0.7010  0.3648  2.4696  1.2346       36673.4377
2038       14292.5108  0.2970  0.2582  3.2219  0.7580       29884.8925
2039       19112.9500  0.2372  0.2668  1.2658  1.0519       29902.2318
2040       18848.2872  0.1252  0.2812  1.0505  0.9217       27558.6166
2041       40387.1305  0.0800  0.2627  0.4927  1.6934       33803.9562
2042       48391.7828  0.1252  0.1644  1.0920  1.6787       29513.1681
2043       41669.6117  0.1899  0.2636  1.4319  1.3376       32375.4245
2044       61084.4927  0.1489  0.2150  5.8505  1.6468       32872.6700
2045       55518.1974  0.1799  0.2888  2.6045  1.3266       33350.7012
