Year Ft Rg C
2019  3  1  3380.9967
2020  3  1  1513.2037
2021  3  1  2339.8218
2022  3  1  1997.5898
2023  3  1  1980.5320
2024  3  1  3403.1377
2025  3  1  3197.7096
2026  3  1  2848.6939
2027  3  1  3147.0019
2028  3  1  2985.1068
2029  3  1  2365.4905
2030  3  1  2839.5016
2031  3  1  2922.8246
2032  3  1  5361.0263
2033  3  1  4225.3937
2034  3  1  4557.0227
2035  3  1  5451.7579
2036  3  1  5727.0166
2037  3  1  6203.8501
2038  3  1  4033.8249
2039  3  1  3370.8654
2040  3  1  3445.8527
2041  3  1  2926.2404
2042  3  1  2845.0174
2043  3  1  2560.6201
2044  3  1  3459.6287
2045  3  1  2602.1784
