pseudo ref pts
2019       15420.8807  0.5927  0.5044  0.6556  0.5967       27835.2331
2020       16334.4805  0.3287  0.5165  0.6441  0.6098       27359.6793
2021       19882.4183  0.2953  0.4127  0.6830  0.6702       26683.3614
2022       18493.1934  0.3265  0.4888  0.7159  0.6394       27765.3531
2023       25051.1648  0.2808  0.4985  0.8180  0.7737       29613.6899
2024       35181.7707  0.2783  0.4261  1.5001  1.0011       33558.2923
2025       52529.7546  0.1548  0.2328  1.3969  1.3856       32736.8586
2026       55990.0548  0.1662  0.2340  1.2994  1.4195       31065.8269
2027       38789.8253  0.2336  0.2608  0.4328  1.0881       27010.2120
2028       49722.8001  0.1624  0.1924  0.8662  1.4112       28545.2503
2029       27831.3632  0.3513  0.3854  1.8498  0.8962       28933.4414
2030       35544.7496  0.2776  0.2964  3.1875  1.0481       29167.5365
2031       55108.1238  0.2159  0.3678  4.1776  1.4310       32822.0201
2032       41330.3407  0.4194  0.3500  0.8729  1.0298       28678.0724
2033       54299.2259  0.3020  0.3241  0.9566  1.3079       30451.2313
2034       56932.1425  0.2797  0.3674  0.6625  1.3347       32053.3646
2035       42056.9782  0.3943  0.4334  0.6669  0.9714       29999.9272
2036       45973.9803  0.3326  0.3383  0.6610  1.0384       30567.1902
2037       33715.6634  0.4140  0.2849  0.7230  0.8067       25917.9510
2038       42279.7510  0.1790  0.2399  0.4647  1.1047       29449.7748
2039       45821.4972  0.1660  0.2855  0.8410  1.3718       31747.6013
2040       30968.8523  0.4185  0.4659  0.7754  1.0093       32909.2991
2041       26758.9723  0.4456  0.4099  1.4484  0.9489       31443.0389
2042       27652.0850  0.2962  0.4156  1.0243  1.1063       33082.0386
2043       28909.9518  0.3072  0.4683  0.7660  1.2923       34322.0394
2044       28307.8055  0.3887  0.3956  1.2751  1.3332       33154.8547
2045       24903.5780  0.5204  0.4239  4.9190  1.2267       31915.7403
