Year Ft Rg C
2019  3  1  3392.6750
2020  3  1  2375.4079
2021  3  1  3170.0194
2022  3  1  2361.9617
2023  3  1  2564.3627
2024  3  1  2548.7081
2025  3  1  2122.9988
2026  3  1  2463.5025
2027  3  1  2150.9202
2028  3  1  2916.6972
2029  3  1   866.4990
2030  3  1   816.8200
2031  3  1  1038.7119
2032  3  1  2255.7043
2033  3  1  2527.0923
2034  3  1  2222.2202
2035  3  1  2534.9109
2036  3  1  1947.6532
2037  3  1  1809.5333
2038  3  1  1713.6565
2039  3  1  1896.9129
2040  3  1  2079.4940
2041  3  1  1731.9842
2042  3  1  1869.2924
2043  3  1  1899.1568
2044  3  1  1677.6800
2045  3  1  2130.3664
