pseudo ref pts
2019       19497.3835  0.4322  0.3605  0.6469  0.6747       13491.5248
2020       24319.4402  0.2588  0.3809  0.8443  0.8364       15794.1398
2021       22316.4592  0.2068  0.3062  0.8130  0.8408       14965.3163
2022       33837.3341  0.1328  0.2304  0.9106  1.2684       16110.7467
2023       50495.0516  0.0895  0.1863  1.0609  2.0883       18113.5433
2024       31897.5961  0.1914  0.2131  0.7576  1.4945       18590.0408
2025       16127.2793  0.3524  0.1862  1.4479  1.0359       16385.4228
2026       13543.7162  0.2316  0.2168  2.6693  1.1291       18151.0300
2027       10423.5837  0.3099  0.2848  3.6991  0.9989       17610.7294
2028       10475.7402  0.2709  0.2566  1.2567  1.0374       15601.2029
2029        9541.5201  0.1548  0.2438  1.9940  0.9374       13998.0264
2030       14832.3022  0.1612  0.3641  1.3825  1.1567       15038.2548
2031       19152.7748  0.1198  0.3056  2.0089  1.1376       14804.2681
2032       31396.2515  0.1885  0.3930  0.6193  1.6002       16560.9591
2033       13081.1472  0.2862  0.3241  0.3057  0.5835       12876.8932
2034       16172.5352  0.1970  0.2883  0.2309  0.6263       13108.4231
2035       16512.6344  0.1745  0.2867  0.4352  0.6236       14034.2755
2036       17173.3782  0.1770  0.2679  0.4040  0.6743       14002.9523
2037       18009.1141  0.1833  0.2734  0.8701  0.7521       15303.1623
2038       25143.6611  0.1342  0.2401  1.0257  1.1516       17479.6695
2039       14761.2050  0.2532  0.3067  1.5334  0.7766       15663.8617
2040       13151.9256  0.2919  0.2981  0.8298  0.7136       14223.6592
2041       11508.8403  0.3546  0.4025  0.8381  0.7211       14513.8305
2042        8117.5325  0.3700  0.3407  0.3620  0.5477       13418.0449
2043        6348.4692  0.5020  0.3551  0.4360  0.4838       12690.4729
2044        8122.4879  0.2424  0.3113  0.7367  0.6436       14061.0374
2045        8755.6093  0.2177  0.2765  0.5578  0.7143       13779.1135
