Year Ft Rg C
2019  3  1  3940.0131
2020  3  1  2796.2199
2021  3  1  3212.7351
2022  3  1  4600.9543
2023  3  1  5511.0326
2024  3  1  7462.4293
2025  3  1  6621.5893
2026  3  1  4212.2543
2027  3  1  3789.0629
2028  3  1  3507.3054
2029  3  1  4895.6597
2030  3  1 11796.8377
2031  3  1 12755.1420
2032  3  1 10765.3380
2033  3  1  6766.4656
2034  3  1  7216.9992
2035  3  1  4605.1955
2036  3  1  4267.1907
2037  3  1  7910.6934
2038  3  1 11427.7088
2039  3  1 10862.4880
2040  3  1 10724.9313
2041  3  1  8408.1219
2042  3  1  7082.7061
2043  3  1  6736.1410
2044  3  1  6878.9770
2045  3  1 13189.6033
