pseudo ref pts
2019       30536.0883  0.2601  0.3530  1.0035  1.0723       98182.6190
2020       32296.3628  0.1464  0.3090  0.8862  1.2142       95879.7367
2021       37562.1775  0.1460  0.3395  0.5823  1.0921       93526.0916
2022       68105.3772  0.1159  0.2817  0.7168  1.5944       95435.3125
2023       94840.3339  0.1064  0.2999  0.6447  2.0204      103490.0213
2024       85955.1833  0.2607  0.3298  0.8016  1.4844      102394.4532
2025       62908.8281  0.2740  0.3016  1.0117  1.2156       99287.1037
2026       51191.4678  0.2308  0.3318  1.9245  0.9011      101794.8432
2027       45339.0942  0.2725  0.3580  3.2387  0.7540       98801.7213
2028       68272.6502  0.1293  0.2772  2.2847  1.0087       91258.9126
2029      100695.2887  0.1111  0.2727  1.4772  1.2477       88413.6207
2030      149200.8050  0.2306  0.3992  0.4060  1.6544       96324.7402
2031      152245.4532  0.1994  0.3734  0.3921  1.5875      100714.4796
2032      129329.2340  0.3864  0.4521  0.5421  1.3142      111615.1435
2033      122603.2875  0.3108  0.2933  1.8136  1.4056      107555.5842
2034       80111.1294  0.2872  0.2367  2.6242  1.0424       99239.5472
2035       52965.5574  0.3736  0.2417  2.3517  0.7431       91589.7139
2036       49575.8740  0.1640  0.3217  1.4987  0.6943       90138.7022
2037      129207.2770  0.0889  0.2453  1.1635  1.5249      102070.6915
2038      188929.8550  0.1866  0.3257  0.8241  2.0503      108597.7592
2039      204934.6537  0.1915  0.3823  1.0857  2.1657      119521.8954
2040      172988.3062  0.4522  0.3817  1.7494  1.7503      121654.4947
2041       91257.6871  0.8267  0.3630  1.5391  1.0410      102035.1203
2042       71348.5690  0.5409  0.5532  2.5977  1.0803      105221.9596
2043      106893.2125  0.3435  0.4831  3.8673  1.4563      111959.5673
2044       94439.1734  0.7300  0.7266  2.8496  1.0341       96153.5315
2045       91106.1632  0.7359  0.7355  0.8500  0.8673       89872.7479
