Year Ft Rg C
2019  3  1  3115.2724
2020  3  1  1402.5341
2021  3  1  1409.7389
2022  3  1  2191.1500
2023  3  1  3229.6082
2024  3  1  5809.2624
2025  3  1  5815.2521
2026  3  1 10343.4560
2027  3  1 14035.2470
2028  3  1 14365.5597
2029  3  1 16659.4813
2030  3  1 18949.0347
2031  3  1 12948.8222
2032  3  1  9243.2390
2033  3  1  7912.0765
2034  3  1  6564.6491
2035  3  1  5799.7687
2036  3  1 10725.2945
2037  3  1 15590.9343
2038  3  1 38285.4347
2039  3  1 25349.2677
2040  3  1 15428.0433
2041  3  1 12959.2896
2042  3  1  3666.9704
2043  3  1  5584.1520
2044  3  1  4751.7792
2045  3  1  5560.6858
