pseudo ref pts
2019       11330.6137  0.4753  0.2742  0.5149  0.4469       73424.0717
2020        9677.1147  0.1937  0.3270  0.3875  0.3928       70999.3562
2021       21026.3957  0.0951  0.2347  0.3911  0.6282       74025.2605
2022       22827.7016  0.1689  0.3302  0.3103  0.5153       68413.5905
2023       49069.0149  0.1182  0.3526  0.5362  0.9559       84878.4158
2024       99678.1921  0.1415  0.2922  2.9326  1.5767       94965.0469
2025      191037.9957  0.1165  0.3065  5.8297  2.2201      109222.0328
2026      142081.7692  0.3404  0.2950  5.8732  1.3480       96923.3346
2027      140535.9469  0.3213  0.2950  1.4413  1.2865       93341.6938
2028      158235.9446  0.2369  0.3269  1.2751  1.2851       97743.3455
2029      254048.7121  0.1765  0.3390  0.7075  1.8902      106441.4107
2030      161541.7250  0.3923  0.3827  0.4185  1.2432       97245.5862
2031      129342.3042  0.4687  0.3320  0.3017  1.0442       91569.6892
2032       83361.4202  0.5320  0.4519  0.4307  0.8286       88335.8887
2033       52569.1774  0.8129  0.5415  0.6154  0.6092       86128.2696
2034       91182.1800  0.3126  0.4627  5.8212  1.1719      102569.0926
2035      137814.0319  0.2059  0.4205  7.0422  1.5949      102023.0911
2036      150538.0594  0.4338  0.6145  4.5700  1.4436      100453.5574
2037      248514.5771  0.2591  0.5614  0.8897  2.2174      116715.4621
2038      225523.4412  0.7146  0.5230  0.5930  1.8016      110509.2410
2039      163880.0573  0.8550  0.4625  0.5624  1.2948      112844.7325
2040       94656.7042  0.5734  0.3601  0.4222  1.0394      102235.7521
2041       47696.7131  1.1366  0.3404  0.5055  0.6513       93016.9247
2042       28662.8298  0.2906  0.3574  0.5937  0.5373       95480.5228
2043       48807.2197  0.2214  0.3589  2.7861  0.9451      105708.2175
2044       73800.4064  0.1452  0.2968  3.4226  1.2728      101741.2061
2045      106357.6231  0.1444  0.3256  2.8343  1.4923       94555.9926
