Year Ft Rg C
2019  3  1  3626.0428
2020  3  1  3373.0928
2021  3  1  3128.5762
2022  3  1  1781.9581
2023  3  1  2111.2034
2024  3  1  1550.7560
2025  3  1  1296.2120
2026  3  1  1710.2282
2027  3  1  1373.2394
2028  3  1  1581.0159
2029  3  1  1403.6725
2030  3  1  1378.7986
2031  3  1  1298.1237
2032  3  1  1435.6850
2033  3  1  1478.5473
2034  3  1  1416.4227
2035  3  1  1395.8102
2036  3  1  1534.9046
2037  3  1   254.9478
2038  3  1   287.6671
2039  3  1   262.4100
2040  3  1   333.8651
2041  3  1   268.4095
2042  3  1   248.0799
2043  3  1   623.0747
2044  3  1  1041.8453
2045  3  1  1245.4286
