pseudo ref pts
2019       19843.4558  0.6133  0.6667  0.8933  0.8944       16532.1846
2020       18660.3883  0.4912  0.4410  0.8136  0.8191       15747.9438
2021       12707.4613  0.7651  0.4960  0.4061  0.5865       14143.8793
2022       12433.5518  0.4103  0.4666  1.2878  0.7053       14596.3725
2023       10750.7295  0.5128  0.4890  1.1919  0.5963       15369.2571
2024       12630.9908  0.2940  0.3675  2.2781  0.6591       14041.0857
2025        8695.9771  0.3521  0.3504  0.2429  0.4521       12413.0242
2026        9912.4299  0.2652  0.3828  0.1987  0.5051       13480.3197
2027       15272.3931  0.2066  0.3518  0.1195  0.7830       14321.4368
2028       16092.6685  0.3846  0.4556  0.8055  0.9079       15260.7159
2029       13342.3341  0.5748  0.5155  1.2135  0.8852       15125.0868
2030       13960.2818  0.5397  0.4136  4.7176  1.0319       16023.1167
2031       10331.3302  0.9571  0.6547  1.2925  0.9189       16934.7826
2032        9179.4051  0.8269  0.5365  1.3245  0.9252       16690.6476
2033        7066.9627  0.8253  0.3563  0.6407  0.8226       15669.3419
2034        7255.1672  0.6275  0.4013  1.2740  1.0267       16143.4550
2035        7260.8501  0.7192  0.4954  2.8548  1.1852       16236.7813
2036        7970.8839  0.4796  0.3138  3.0009  1.1250       15145.6206
2037        9170.8462  0.1801  0.3308  2.3610  1.0802       13978.8766
2038       10429.9598  0.1680  0.3629  0.4344  1.0705       14124.3669
2039       14052.0219  0.1234  0.3586  0.4787  1.2508       16329.3923
2040       13444.8125  0.2805  0.6039  0.4655  1.0242       17396.0331
2041       17606.6368  0.3057  0.6844  1.2988  1.1475       17590.8754
2042       23923.5288  0.4009  0.5431  2.8933  1.5399       19650.6222
2043       16486.4306  0.6362  0.5791  5.1353  1.2351       17070.5488
2044       27501.9768  0.2689  0.4033  5.3056  1.8015       18391.9368
2045       30715.7724  0.1854  0.3509  3.8171  1.7508       17722.6577
