Year Ft Rg C
2019  3  1  3405.6106
2020  3  1  2382.2953
2021  3  1  2437.4045
2022  3  1  2142.3667
2023  3  1  1653.8732
2024  3  1  1466.0300
2025  3  1  1822.3353
2026  3  1  1776.2878
2027  3  1  1927.6883
2028  3  1   381.2763
2029  3  1   773.4098
2030  3  1  1669.8390
2031  3  1  1459.7607
2032  3  1  2559.5947
2033  3  1  2378.4595
2034  3  1  2926.4196
2035  3  1  2400.4711
2036  3  1  1314.1423
2037  3  1  1701.0207
2038  3  1  1459.6065
2039  3  1  1574.3165
2040  3  1  1383.4622
2041  3  1  1499.9573
2042  3  1  1570.6695
2043  3  1  1576.6691
2044  3  1  1521.7566
2045  3  1  1942.4816
