pseudo ref pts
2019       21822.7269  0.4749  0.4715  0.8598  0.8025       15563.4686
2020       30700.1159  0.2409  0.3382  1.2165  1.1356       17210.6001
2021       29918.0625  0.2497  0.3470  2.3585  1.1556       17068.7456
2022       26722.6446  0.4151  0.4522  2.5435  1.0859       17095.6007
2023       24571.8928  0.3350  0.3489  2.2118  1.0382       17177.4920
2024       24113.0740  0.2257  0.3255  0.7327  1.0685       18526.1234
2025       24721.2374  0.2168  0.3117  0.1969  1.2938       17829.3577
2026       12148.9791  0.4174  0.3367  0.2559  0.7282       15509.2292
2027        8924.5864  0.6109  0.2732  1.2958  0.6491       13883.0027
2028       11699.3509  0.1233  0.2972  5.9050  0.9000       14355.6316
2029       14084.9678  0.1222  0.3222  2.1928  0.9434       13597.5516
2030       13300.4291  0.2813  0.4151  0.2344  0.8119       12943.1720
2031       18878.3724  0.2013  0.3837  0.4328  1.1186       13927.4242
2032       23619.5608  0.3651  0.4646  1.0686  1.0985       15791.9671
2033       29894.2439  0.3779  0.5650  2.9825  1.3308       16638.9195
2034       36989.3367  0.3977  0.4066  1.8357  1.5930       17410.1743
2035       44905.6015  0.3206  0.3569  1.0491  2.0611       19241.2729
2036       37141.5733  0.4115  0.3257  1.1035  1.9967       19210.3348
2037       21331.8698  0.8401  0.3207  1.7744  1.3936       18528.4254
2038       12420.9840  0.8863  0.4888  1.8010  1.1106       17451.2875
2039       17808.2759  0.5106  0.5313  2.8811  1.7284       20878.8841
2040       10726.8393  0.7027  0.4373  0.4881  1.1471       17260.0715
2041       10491.6649  0.8363  0.4263  0.7266  1.3265       17467.1855
2042       10962.2552  0.4977  0.3898  0.7953  1.5802       17931.4164
2043        6943.3141  0.6875  0.3521  1.2843  1.0523       15756.9725
2044        9176.1718  0.2958  0.3106  2.7954  1.5545       17378.3511
2045        8907.5426  0.3038  0.3581  2.4845  1.3946       17141.4550
