Year Ft Rg C
2019  3  1  3655.2999
2020  3  1  1987.4978
2021  3  1  2083.9243
2022  3  1  1124.8944
2023  3  1  1329.0631
2024  3  1  1304.8274
2025  3  1  2248.0290
2026  3  1  1832.0648
2027  3  1  2203.6873
2028  3  1  2775.3072
2029  3  1  3849.1086
2030  3  1  3408.4743
2031  3  1  3256.0362
2032  3  1  1928.6038
2033  3  1  2630.9469
2034  3  1  2259.3296
2035  3  1  2489.2933
2036  3  1  1612.9802
2037  3  1  2511.2779
2038  3  1  4513.9698
2039  3  1  5552.2216
2040  3  1  4405.0003
2041  3  1  3298.2266
2042  3  1  2741.7061
2043  3  1  3135.9409
2044  3  1  3317.9732
2045  3  1  2718.0116
