pseudo ref pts
2019       32927.7849  0.2562  0.3002  1.4890  1.2599       17391.6691
2020       35682.1676  0.1732  0.2651  1.5720  1.3860       17172.8948
2021       20135.7798  0.2560  0.2634  2.5134  0.8431       14745.3175
2022       21592.6085  0.2089  0.3216  1.8985  0.8956       14808.4182
2023       29663.2265  0.1140  0.2295  2.0693  1.1440       15601.0845
2024       26466.3681  0.1448  0.2360  0.1412  1.0405       14462.3559
2025       33266.8918  0.1403  0.2294  2.0308  1.3767       16551.6002
2026       25411.3667  0.3095  0.3505  2.5774  0.9334       15849.7602
2027       39939.0467  0.1758  0.2895 14.0849  1.2333       16523.5409
2028       28626.3147  0.3053  0.3100  0.5894  0.8350       12671.1105
2029       33578.9277  0.3291  0.3480  0.2396  0.9482       12588.8914
2030       36268.1783  0.3104  0.3465  0.1876  0.9407       14116.5985
2031       26648.2631  0.3483  0.3674  0.3875  0.7502       13841.3718
2032       29925.3356  0.2663  0.3469  1.2390  0.9303       15135.2640
2033       29577.8304  0.3316  0.3747  2.9412  0.9816       15531.2330
2034       26174.1830  0.3085  0.2936  1.7069  0.9688       15072.5733
2035       24283.7791  0.2743  0.3037  2.5449  1.0485       16098.6183
2036       37432.0742  0.1317  0.2658  2.1077  1.5149       17166.8343
2037       31255.7816  0.1876  0.3625  1.9779  1.0252       16400.7788
2038       20668.9958  0.3808  0.3957  0.2743  0.6816       13598.9582
2039       22676.6900  0.4120  0.5166  0.3322  0.7833       15023.0016
2040       16158.0149  0.5859  0.5401  0.1891  0.4982       13353.4860
2041       22416.7171  0.3483  0.4255  0.5323  0.6969       14837.5524
2042       19905.7023  0.4013  0.3960  0.3014  0.6191       13692.1889
2043       17270.5517  0.6785  0.5583  0.3850  0.6322       13373.7451
2044       11451.5003  1.0615  0.6192  0.3502  0.5125       13006.1493
2045       10533.1760  1.0870  0.4528  1.4034  0.5724       13154.0304
