Year Ft Rg C
2019  3  1  3301.2265
2020  3  1  2568.3720
2021  3  1  2728.8491
2022  3  1  2057.2120
2023  3  1  2461.4461
2024  3  1  3558.6143
2025  3  1  2945.3521
2026  3  1  2790.7376
2027  3  1  2048.8485
2028  3  1  2385.6676
2029  3  1  2166.2096
2030  3  1  2509.4238
2031  3  1  1460.1088
2032  3  1  1319.5275
2033  3  1  1155.6225
2034  3  1  1473.5576
2035  3  1  1760.7999
2036  3  1  2375.9724
2037  3  1  1708.5202
2038  3  1  2109.3331
2039  3  1  1749.6464
2040  3  1   829.3239
2041  3  1  1489.1684
2042  3  1  1520.9380
2043  3  1  1318.3455
2044  3  1  1365.7149
2045  3  1  1476.5789
