pseudo ref pts
2019       23405.0928  0.3736  0.3148  0.8971  0.9255       13926.0282
2020       19843.7077  0.2619  0.2664  0.8538  0.8152       13336.5604
2021       18278.6754  0.3170  0.2703  2.8717  0.7341       12632.7120
2022       26568.7406  0.1884  0.2382  2.2485  1.0040       13018.2818
2023       33091.0909  0.1718  0.2628  2.4646  1.1387       13273.3627
2024       18901.3377  0.4840  0.4002  0.1125  0.6516       12166.4621
2025       15294.5327  0.5575  0.3784  0.2273  0.5369       11766.9668
2026       16325.2548  0.4640  0.5253  0.3829  0.6039       13869.9639
2027       23131.4400  0.2632  0.3348  1.5899  0.8704       14171.1508
2028       24723.2306  0.2778  0.3235  0.9519  0.9669       14627.6724
2029       20195.1842  0.3161  0.3251  0.8383  0.9639       15446.5332
2030       10996.8843  0.4390  0.3116  0.8303  0.6325       13842.5911
2031       15699.1653  0.2840  0.2896  1.8182  0.9318       15073.8701
2032       19955.4656  0.1721  0.3585  1.4208  1.2629       17600.0458
2033       19867.6567  0.1571  0.3241  1.0126  1.2225       16625.1739
2034       15110.3257  0.3340  0.3399  0.4388  0.9165       14160.5676
2035       13752.5045  0.3592  0.3234  0.9826  0.8270       14631.0489
2036       16384.5845  0.2701  0.2859  0.9577  0.9409       14188.9988
2037        9067.8106  0.4230  0.3105  0.7074  0.5545       11736.4100
2038       10385.3393  0.2519  0.2894  0.7052  0.6927       12746.3662
2039        6728.6575  0.3037  0.2661  0.6004  0.4437       11523.1129
2040        8559.9448  0.1270  0.2461  0.6974  0.5309       12354.8652
2041       12994.0500  0.1365  0.3024  0.7348  0.7665       13635.5061
2042       19805.4676  0.1279  0.2631  0.8794  1.0869       14769.6278
2043       23922.9826  0.1537  0.3403  1.2374  1.1949       14773.5278
2044       25759.6338  0.2302  0.3520  0.8437  1.1612       15823.3358
2045       18698.2035  0.3191  0.4426  0.6999  0.8851       15050.7322
