Year Ft Rg C
2019  3  1  3751.3969
2020  3  1  1078.2803
2021  3  1  1332.3619
2022  3  1  2929.0675
2023  3  1  3746.9009
2024  3  1  4776.9744
2025  3  1  5667.2699
2026  3  1  8747.9377
2027  3  1  9190.5226
2028  3  1  9125.2678
2029  3  1 12018.9786
2030  3  1 21672.9509
2031  3  1 21035.5728
2032  3  1 16772.0371
2033  3  1 14914.8003
2034  3  1 20902.5235
2035  3  1 17366.6963
2036  3  1 10984.8981
2037  3  1  6393.5275
2038  3  1  2846.5293
2039  3  1  3646.2612
2040  3  1  4802.9979
2041  3  1  7336.4876
2042  3  1 12371.2496
2043  3  1  9331.8773
2044  3  1  8158.5587
2045  3  1 14022.6548
