pseudo ref pts
2019       31818.7101  0.2324  0.2505  0.9951  1.0057       91179.1313
2020       54663.6772  0.0548  0.1495  1.3033  1.7015       92373.0753
2021       57590.7496  0.0598  0.1916  0.9300  1.5042       92459.3294
2022       53669.6948  0.1038  0.2219  0.9725  1.1749       91155.9131
2023       43257.4806  0.1755  0.2784  0.5068  0.8001       82134.2469
2024       69339.6654  0.1201  0.2442  1.2585  1.0029       86847.2118
2025       88010.0358  0.1047  0.2419  1.1416  1.1399       92375.1104
2026       61331.0190  0.2354  0.2568  2.0237  0.6840       82502.1309
2027       71246.9595  0.2586  0.2957  1.1662  0.6974       78464.9420
2028      121107.3236  0.1561  0.2958  1.8854  0.9885       89552.0328
2029      135058.7172  0.1438  0.3018  0.7844  0.9656       92919.0035
2030      124415.0015  0.3313  0.3969  0.5182  0.8133       89088.8866
2031      145246.3540  0.3159  0.3966  0.5543  0.8281       91903.6941
2032      185052.4783  0.3048  0.4699  0.5652  1.0882      104313.8931
2033      148750.7631  0.3673  0.5315  0.5396  0.8976      104014.7138
2034      106738.1678  0.7317  0.5373  0.2687  0.7225       93369.3311
2035      150814.8222  0.5176  0.3379  0.5926  1.1833       99921.4563
2036      102194.7720  0.5027  0.2902  1.3095  1.1633      102659.9030
2037       79224.8338  0.8661  0.3676  2.4732  1.2138      109813.4426
2038       39273.8445  0.3204  0.2582  3.2278  0.7424       89704.2185
2039       54396.6065  0.2508  0.2668  1.2673  1.0554       89906.6789
2040       54569.2549  0.1654  0.2857  1.0511  0.9363       82551.7877
2041      115401.9101  0.1030  0.2668  0.4922  1.7179      101275.5414
2042      136396.3599  0.1499  0.1656  1.0903  1.6749       88486.9822
2043      115319.4454  0.2308  0.2656  1.4298  1.3179       96766.5950
2044      168574.6228  0.1681  0.2150  5.8478  1.6282       98775.1338
2045      155989.3053  0.2036  0.2911  2.6038  1.3270       99855.9764
