Year Ft Rg C
2019  3  1  3301.2265
2020  3  1  1966.5404
2021  3  1  2341.8156
2022  3  1  2034.9470
2023  3  1  2824.3625
2024  3  1  4549.6016
2025  3  1  4764.3599
2026  3  1  5073.8045
2027  3  1  3753.3866
2028  3  1  5052.0574
2029  3  1  3875.0479
2030  3  1  4547.4499
2031  3  1  3430.7533
2032  3  1  2583.3739
2033  3  1  3543.3415
2034  3  1  2891.8241
2035  3  1  3534.9890
2036  3  1  3019.9798
2037  3  1  2241.9666
2038  3  1  2577.0848
2039  3  1  2205.7255
2040  3  1  1896.6494
2041  3  1  2994.1173
2042  3  1  2644.6229
2043  3  1  2083.8267
2044  3  1  2649.3551
2045  3  1  2753.5863
