pseudo ref pts
2019       23405.0928  0.3730  0.3148  0.8971  0.9255       27852.8414
2020       20619.6426  0.2082  0.2644  0.8538  0.8470       26687.3182
2021       21512.0946  0.2488  0.2683  2.8725  0.7973       25160.5018
2022       39002.4999  0.1414  0.2345  2.2491  1.1500       26035.7904
2023       56095.0508  0.1233  0.2588  2.4656  1.3434       26523.8346
2024       34824.5528  0.4048  0.3972  0.1125  0.7588       24268.0543
2025       30001.0145  0.4921  0.3755  0.2275  0.5941       23542.9456
2026       33482.4860  0.4322  0.5253  0.3831  0.6444       27687.4601
2027       48141.2906  0.2410  0.3348  1.5905  0.9063       28302.6203
2028       51896.8189  0.2743  0.3235  0.9522  0.9885       29306.4907
2029       42028.1372  0.2874  0.3251  0.8387  0.9692       30914.9288
2030       23092.5095  0.4119  0.3092  0.8308  0.6346       27776.3757
2031       32828.0789  0.2980  0.2896  1.8193  0.9306       30188.7968
2032       40687.5452  0.1729  0.3557  1.4213  1.2532       35359.1347
2033       40188.6733  0.1883  0.3266  1.0127  1.2072       33278.5123
2034       29644.7655  0.3408  0.3399  0.4388  0.8974       28318.8469
2035       26933.7993  0.3719  0.3234  0.9824  0.8158       29258.2948
2036       32013.0207  0.2258  0.2837  0.9576  0.9296       28286.6389
2037       18359.2420  0.3443  0.3081  0.7075  0.5607       23414.6064
2038       21731.0643  0.1863  0.2850  0.7054  0.7084       25516.2539
2039       14467.7290  0.2334  0.2621  0.6006  0.4581       22978.9785
2040       18593.6955  0.1279  0.2461  0.6976  0.5432       24804.0589
2041       27640.4142  0.1306  0.3047  0.7346  0.7705       27153.2163
2042       41561.5537  0.1253  0.2631  0.8790  1.0782       29410.7694
2043       49575.2765  0.1507  0.3351  1.2367  1.1762       29639.9051
2044       52931.2863  0.2286  0.3520  0.8433  1.1479       31600.0947
2045       38164.0344  0.3178  0.4426  0.6997  0.8768       30031.9143
