Year Ft Rg C
2019  3  1  3933.2221
2020  3  1  1691.1190
2021  3  1  2922.8283
2022  3  1  4588.1183
2023  3  1  5165.8735
2024  3  1  7420.5310
2025  3  1  7596.6028
2026  3  1 12525.6485
2027  3  1 12335.2529
2028  3  1  7162.7426
2029  3  1  6477.8211
2030  3  1  7640.2712
2031  3  1  9741.4088
2032  3  1 16190.3258
2033  3  1 10635.8730
2034  3  1  8931.2596
2035  3  1  7043.9162
2036  3  1  7317.9365
2037  3  1  7761.6202
2038  3  1 12652.4160
2039  3  1 18879.3310
2040  3  1 21782.2331
2041  3  1 17767.7220
2042  3  1 11157.3601
2043  3  1  8605.7659
2044  3  1  4399.7756
2045  3  1  5485.7838
