pseudo ref pts
2019       44120.3165  0.1916  0.2514  1.5162  1.7456      100215.2592
2020       41866.1370  0.1378  0.2887  1.4739  1.6462      106124.5232
2021       70507.5265  0.1243  0.4092  1.5974  2.1160      123368.9542
2022      106291.4562  0.1644  0.3944  1.9289  2.6035      134476.8928
2023      106668.5854  0.1816  0.3586  2.3581  2.3454      116863.7522
2024      172085.2924  0.2341  0.3702  3.9933  2.9239      124771.7509
2025      237120.2174  0.1603  0.2870  4.8300  3.2228      123730.5262
2026      221782.5635  0.3131  0.3068  1.4167  2.7363      116000.6069
2027      108232.2480  0.5866  0.3497  0.8094  1.4229      100333.8791
2028       59873.5252  0.7179  0.5295  0.9321  0.8796      103166.2542
2029       92562.8340  0.5436  0.5702  2.8012  1.2485      114361.3614
2030      108947.5282  0.6377  0.7310  2.1579  1.3242      105655.7428
2031      119639.6935  0.4360  0.4540  0.9416  1.3350       94629.5169
2032      138957.5634  0.4976  0.4889  0.5690  1.5476      105835.9552
2033       73821.1194  0.6901  0.5122  0.5997  0.9359       98889.2161
2034       88619.5035  0.3145  0.3397  1.8317  1.1900       98249.3571
2035       73601.7072  0.2791  0.2776  2.0117  0.8990       91971.1923
2036       85567.6421  0.1683  0.2998  2.5026  0.9676       89815.6139
2037      139850.0126  0.1320  0.2473  1.6307  1.2445       96538.7223
2038      224202.0928  0.1771  0.3073  2.1673  1.5260      102123.8184
2039      241904.6796  0.1824  0.3488  0.4599  1.5357      100878.7639
2040      183101.5183  0.3073  0.3189  0.1968  1.0823      108355.2680
2041      134770.6359  0.4549  0.3586  0.2659  0.8763      108151.2644
2042       83151.9561  0.3386  0.2669  0.6641  0.6930       93873.1775
2043       86979.6917  0.3856  0.2721  1.9546  0.8417       94968.2048
2044       44822.7153  0.3157  0.3027  0.7159  0.5376       84486.9013
2045       70596.0635  0.2474  0.3376  1.0286  0.9822      101454.4954
