Year Ft Rg C
2019  3  1  2767.5732
2020  3  1  1473.7019
2021  3  1  1907.8151
2022  3  1  6151.1058
2023  3  1  5367.6825
2024  3  1  5173.2780
2025  3  1  4666.9434
2026  3  1  5669.6622
2027  3  1  5382.8634
2028  3  1  3519.1699
2029  3  1  3728.8272
2030  3  1  5028.2337
2031  3  1  5421.0994
2032  3  1  7824.3199
2033  3  1  7393.1027
2034  3  1  6401.1545
2035  3  1  6282.7871
2036  3  1  4637.1227
2037  3  1  4711.4847
2038  3  1  6413.2940
2039  3  1  7087.4551
2040  3  1 12399.9837
2041  3  1  8548.9565
2042  3  1  6394.8725
2043  3  1  6306.3635
2044  3  1  5201.6017
2045  3  1  6429.4928
