pseudo ref pts
2019       29572.1428  0.3329  0.3309  0.9734  1.0816       86371.5855
2020       57644.0334  0.1597  0.4100  1.6093  1.9121      103934.8087
2021       74358.3930  0.1489  0.5158  1.0208  1.9245      105267.1928
2022       98044.6997  0.3314  0.3359  0.7392  2.0507       98685.1178
2023       58749.7475  0.4592  0.3780  0.8126  1.3639       93767.1257
2024       63642.6925  0.4475  0.5605  1.5802  1.4052      103858.7136
2025       63103.6335  0.4990  0.6776  2.2166  1.1730      103322.5540
2026       55687.4696  0.4687  0.4009  0.8509  1.0119       89951.1968
2027       63312.2375  0.3730  0.3629  0.8701  1.1839       98333.4929
2028       73154.9682  0.2645  0.4583  1.6851  1.4169      109647.7832
2029       55547.4456  0.2995  0.3850  1.4945  0.9333       97931.2007
2030       59913.8207  0.2211  0.4065  1.2598  0.9387       96467.6461
2031       68285.1024  0.2448  0.4499  0.4767  1.0442       93231.0350
2032       59605.0162  0.4177  0.4386  0.7170  0.8921       89256.9727
2033       57805.3575  0.3952  0.4034  0.9716  0.7690       91441.5253
2034       72874.5015  0.2299  0.3379  1.5605  0.9272       89114.0575
2035       73408.3946  0.2186  0.3135  0.8794  0.8954       84651.0693
2036       62432.2723  0.2139  0.3386  0.5495  0.8381       89595.4818
2037       50984.5666  0.2551  0.3745  0.6908  0.6489       87183.5489
2038       58858.9085  0.2157  0.3817  0.6676  0.6950       89724.0457
2039       60433.0483  0.2584  0.4807  0.5278  0.6771       88640.9904
2040       56982.5708  0.3611  0.3937  0.2320  0.6776       81022.2715
2041       47453.2651  0.3834  0.3780  0.6601  0.6407       80431.9365
2042       65051.2346  0.2201  0.4051  1.8818  0.9231       97538.9167
2043       61151.9171  0.2124  0.3212  3.8678  0.8216       86370.0225
2044       43781.8063  0.3022  0.3749  1.0113  0.5838       78343.4918
2045       55509.3218  0.2371  0.4181  0.8930  0.7200       86692.9060
