Year Ft Rg C
2019  3  1  3473.9756
2020  3  1  4226.7739
2021  3  1  3186.1022
2022  3  1  1957.7012
2023  3  1  1965.1331
2024  3  1  1528.8357
2025  3  1  1670.4213
2026  3  1  1856.5488
2027  3  1  2208.8126
2028  3  1  2023.0737
2029  3  1  1487.6661
2030  3  1  1683.7096
2031  3  1  1027.7498
2032  3  1  1769.4831
2033  3  1  1689.5528
2034  3  1  3316.2236
2035  3  1  3291.9889
2036  3  1  2865.4540
2037  3  1  2051.0586
2038  3  1  1064.0866
2039  3  1  1538.5558
2040  3  1  1529.4395
2041  3  1  1756.3519
2042  3  1  1434.5858
2043  3  1  1656.0566
2044  3  1  1749.6523
2045  3  1  1530.0790
