pseudo ref pts
2019       25686.2621  0.5410  0.5844  1.0423  1.0565       15516.8061
2020       17460.7047  0.7037  0.4359  0.7222  0.7196       13611.1559
2021       21013.1567  0.4067  0.2834  1.1654  0.9641       14582.5835
2022       24632.4881  0.1955  0.2882  1.7025  1.2066       16984.9002
2023       21012.3484  0.2315  0.3234  1.5620  1.1042       16556.6856
2024       13338.2775  0.4258  0.4376  0.6845  0.7190       14880.1223
2025       11769.5966  0.4376  0.3500  0.4075  0.7294       13171.7346
2026       10479.0923  0.3205  0.3608  0.5007  0.7494       14217.1147
2027        8313.8576  0.5096  0.4821  0.7318  0.5902       14146.2456
2028        9726.9641  0.4645  0.6533  1.0605  0.6999       14991.9316
2029        6842.6650  0.6600  0.7711  0.6632  0.5034       13618.3290
2030        7124.6685  0.5316  0.5594  0.4750  0.4969       12686.7892
2031        9766.6186  0.3300  0.5166  1.5799  0.6500       13703.8958
2032       14120.3320  0.2999  0.5015  1.6796  0.7465       15165.8454
2033       22654.6421  0.2055  0.5161  1.5358  0.9268       15251.0038
2034       35512.5794  0.3127  0.5272  0.1268  1.3105       16881.3014
2035       36446.2950  0.3056  0.3547  0.4432  1.2334       15062.8032
2036       53828.3407  0.3423  0.3133  1.2991  1.7374       15515.3232
2037       43190.3264  0.3824  0.2965  7.6079  1.5083       14175.9222
2038       35251.8250  0.2490  0.2654  1.6424  1.4032       15347.0020
2039       31971.8794  0.3445  0.3979  0.6112  1.4921       17183.2804
2040       27542.0969  0.4843  0.4449  0.5477  1.5912       18228.8469
2041       13496.8071  0.8366  0.3477  0.5161  0.9356       16102.3886
2042        6310.7625  0.6367  0.3559  1.1548  0.6392       14951.8118
2043        8452.5251  0.7443  0.3946  2.1964  0.8672       16344.9079
2044        8841.8151  0.3543  0.4089  2.3193  1.0023       16862.1188
2045       15963.3104  0.1644  0.3045  1.0258  1.8470       18235.6519
