Year Ft Rg C
2019  3  1  3940.0131
2020  3  1  3804.1647
2021  3  1  3510.6551
2022  3  1  3025.8546
2023  3  1  2847.3212
2024  3  1  2972.6999
2025  3  1  3247.3563
2026  3  1  3200.2947
2027  3  1  2905.3576
2028  3  1  3560.6426
2029  3  1   206.9339
2030  3  1   226.1298
2031  3  1   228.5043
2032  3  1   227.4466
2033  3  1   198.2285
2034  3  1   213.2902
2035  3  1   179.5206
2036  3  1   397.6655
2037  3  1   538.7317
2038  3  1  1063.7861
2039  3  1  1082.8546
2040  3  1  1074.9405
2041  3  1   959.8599
2042  3  1  1114.8837
2043  3  1   797.1130
2044  3  1  1015.3198
2045  3  1  1368.3046
