pseudo ref pts
2019       30536.0883  0.2618  0.3530  1.0035  1.0723       16363.7698
2020       27748.1056  0.2388  0.3163  0.8862  1.0432       15987.4497
2021       22255.4291  0.2976  0.3474  0.5822  0.8391       15605.5749
2022       28570.8008  0.2086  0.2861  0.7164  1.1934       15883.6828
2023       30041.7608  0.2413  0.3022  0.6438  1.4454       17177.9075
2024       20119.9448  0.4903  0.3273  0.8000  1.0879       17120.9071
2025       10822.7297  1.0404  0.3016  1.0073  0.9041       16565.4333
2026        5074.5447  1.7948  0.3394  1.9112  0.6169       16991.4019
2027        3661.8033  3.1712  0.3719  3.2062  0.5398       16447.8526
2028        5800.4327  0.7249  0.2925  2.2652  0.8509       15233.1027
2029        9722.4686  0.0693  0.2685  1.4703  1.2630       14695.1849
2030       17015.6255  0.1312  0.3839  0.4080  1.8538       16046.5721
2031       20235.3452  0.1050  0.3564  0.3956  1.8402       16790.8310
2032       19899.8826  0.2593  0.4383  0.5470  1.5363       18644.7225
2033       21798.5402  0.1957  0.2865  1.8205  1.6303       17918.0122
2034       16351.7580  0.1950  0.2312  2.6256  1.2029       16510.7859
2035       10880.3275  0.2522  0.2380  2.3512  0.8136       15269.3836
2036        9850.8864  0.1354  0.3192  1.4982  0.7136       15006.3440
2037       24413.9384  0.0647  0.2397  1.1638  1.4830       17049.3566
2038       35215.3233  0.1475  0.3232  0.8249  1.9838       18041.4639
2039       38584.8286  0.1562  0.3794  1.0872  2.1217       19856.4096
2040       32747.2174  0.3927  0.3788  1.7513  1.7499       20274.0799
2041       17356.2391  0.7197  0.3602  1.5393  1.0482       17033.8348
2042       13458.7824  0.5249  0.5575  2.5933  1.0815       17470.4980
2043       18999.6046  0.3326  0.4831  3.8600  1.4171       18628.6900
2044       16234.3958  0.7128  0.7266  2.8463  0.9964       16054.9666
2045       15483.7182  0.6411  0.7298  0.8509  0.8382       15012.2417
