Year Ft Rg C
2019  3  1  3626.0428
2020  3  1  1722.8164
2021  3  1  2281.1900
2022  3  1  2873.2658
2023  3  1  4339.1495
2024  3  1  6857.8560
2025  3  1  8526.4807
2026  3  1  8926.5949
2027  3  1  6807.7806
2028  3  1 10675.1783
2029  3  1  6958.6726
2030  3  1  7476.1893
2031  3  1  5824.8021
2032  3  1  6773.8718
2033  3  1  6043.6738
2034  3  1  2555.3983
2035  3  1  2464.8020
2036  3  1  2481.0685
2037  3  1  4042.6907
2038  3  1  8516.2280
2039  3  1  7819.7436
2040  3  1 13949.6361
2041  3  1  9977.1634
2042  3  1  8105.7674
2043  3  1  7703.3031
2044  3  1  9738.1250
2045  3  1 12573.7347
