pseudo ref pts
2019       19843.4558  0.6084  0.6667  0.8933  0.8944       99193.1077
2020       22502.0511  0.2098  0.4276  0.8136  0.9877       94533.9958
2021       25179.3331  0.2471  0.4810  0.4062  0.8304       84883.9672
2022       38405.9078  0.2041  0.4560  1.2899  1.0296       87715.8341
2023       45892.6384  0.2144  0.4778  1.1945  0.9058       92389.8156
2024       68803.4563  0.2392  0.3647  2.2826  0.9167       84087.3211
2025       50948.1975  0.3085  0.3531  0.2431  0.5618       74276.0207
2026       60721.7401  0.2263  0.3857  0.1987  0.5737       80702.2597
2027       95664.8820  0.1547  0.3572  0.1195  0.8214       85625.5871
2028      103734.9001  0.3350  0.4626  0.8057  0.9376       91709.3006
2029       86536.3624  0.4492  0.5195  1.2142  0.9025       90797.6624
2030       92941.7327  0.4585  0.4167  4.7231  1.0533       96116.3531
2031       69311.7280  0.7598  0.6547  1.2944  0.9312      101826.3417
2032       63407.9188  0.6124  0.5406  1.3274  0.9448      100193.4705
2033       51092.7573  0.5359  0.3590  0.6427  0.8455       93884.9503
2034       56072.3205  0.2562  0.3952  1.2777  1.0765       97128.3180
2035       62823.4104  0.2741  0.4878  2.8674  1.2800       97374.1765
2036       68512.4033  0.2677  0.3066  3.0089  1.1838       90865.6038
2037       71438.2737  0.2613  0.3361  2.3653  1.0694       83664.3260
2038       71906.5340  0.2817  0.3729  0.4327  0.9929       84813.2535
2039       87525.7123  0.2071  0.3713  0.4760  1.1239       97983.1522
2040       76963.2904  0.4568  0.6276  0.4628  0.9234      104303.4108
2041       92207.7171  0.5134  0.7113  1.2952  1.0468      105280.4060
2042      116551.4479  0.5258  0.5559  2.8908  1.4187      117700.7153
2043       80681.0776  0.8009  0.5836  5.1344  1.1712      102340.5357
2044      145627.8442  0.2730  0.4033  5.3065  1.8226      110507.7837
2045      172715.5075  0.2021  0.3509  3.8171  1.8456      106811.4487
