Year Ft Rg C
2019  3  1  3768.2311
2020  3  1  2536.0638
2021  3  1  2411.4880
2022  3  1  2323.4325
2023  3  1  2702.5850
2024  3  1  2053.4334
2025  3  1  3159.4250
2026  3  1  2953.4226
2027  3  1  3254.8912
2028  3  1  2528.1779
2029  3  1  3242.7775
2030  3  1  3344.7746
2031  3  1  3360.9518
2032  3  1  2738.9815
2033  3  1  3299.5926
2034  3  1  2916.9017
2035  3  1  3132.2558
2036  3  1  3217.2756
2037  3  1  2519.3803
2038  3  1   280.3570
2039  3  1   703.7533
2040  3  1   999.2976
2041  3  1  1238.2763
2042  3  1  3549.9587
2043  3  1  3161.0117
2044  3  1  3372.0754
2045  3  1  3050.9761
