pseudo ref pts
2019       20689.9486  0.5002  0.4386  0.8741  0.8636       14260.9724
2020       29335.7893  0.2942  0.3975  1.1628  1.2378       15221.8872
2021       18872.6667  0.3246  0.3738  1.3015  0.8272       13940.3357
2022       21626.9967  0.3756  0.4503  1.9645  0.9382       15185.1130
2023       17976.7834  0.5386  0.5333  2.2715  0.7268       14686.7359
2024       14958.7669  0.6677  0.6787  0.8580  0.5893       14854.6521
2025       17338.4147  0.4809  0.4736  0.4728  0.6871       13972.7505
2026       20010.0767  0.3255  0.3651  0.1303  0.8531       14142.0552
2027       12352.5054  0.6331  0.4611  0.2221  0.5491       13083.6208
2028       16121.1969  0.4160  0.3988  0.6070  0.7745       15473.5679
2029       17983.1393  0.3725  0.3226  2.6618  0.9287       15702.7207
2030       14274.6883  0.5773  0.4471  1.4259  0.8581       17055.2329
2031        9568.3384  0.7890  0.3940  0.9455  0.6681       14817.4491
2032       12720.5803  0.4262  0.2994  0.7822  0.9658       14665.6006
2033       11884.3920  0.4585  0.3180  0.3630  1.0367       14324.3745
2034        7958.0940  0.8233  0.3667  0.3360  0.8942       13780.6256
2035        7472.5840  1.3214  0.3899  1.1226  0.9825       15497.7944
2036        4024.3641  2.3231  0.4582  2.2145  0.5753       14509.8780
2037        5042.2864  1.3116  0.4304  3.5611  0.6612       14011.7761
2038        7054.5572  0.1384  0.3346  1.2359  0.7764       12812.6698
2039        8652.4149  0.1703  0.3852  0.6964  0.6793       12457.9631
2040       21656.1018  0.1354  0.3636  0.5387  1.2847       14280.3038
2041       22747.4329  0.1427  0.4203  0.4658  1.0746       14218.9320
2042       26284.7341  0.2517  0.3242  0.3921  0.9777       13698.7958
2043       29815.1983  0.3101  0.4110  0.2676  1.0387       14843.0813
2044       20224.7520  0.7208  0.5812  0.2266  0.7405       14152.2355
2045       15035.7820  1.5254  0.7683  0.3715  0.6245       14646.4720
