Year Ft Rg C
2019  3  1  3232.0003
2020  3  1  2057.9018
2021  3  1  2901.0040
2022  3  1  3359.0306
2023  3  1  4149.3904
2024  3  1  9303.8877
2025  3  1  9431.4215
2026  3  1  6232.5745
2027  3  1  5996.9907
2028  3  1  3071.1802
2029  3  1  4484.6550
2030  3  1  4750.2704
2031  3  1  7032.0229
2032  3  1 17047.3910
2033  3  1 19335.5861
2034  3  1 29923.1182
2035  3  1 25279.8455
2036  3  1 11325.6969
2037  3  1 10186.2698
2038  3  1  9506.0693
2039  3  1 10113.4631
2040  3  1 11671.9573
2041  3  1 12582.7284
2042  3  1 10438.8888
2043  3  1 14727.3843
2044  3  1 22011.6271
2045  3  1 21348.1863
