pseudo ref pts
2019       26665.9725  0.3238  0.3643  1.2233  1.1112      100279.3992
2020       30717.7705  0.1462  0.2845  1.1987  1.1864      100782.0066
2021       52477.8335  0.1045  0.3078  1.9116  1.6398      104597.3975
2022       79689.9458  0.1268  0.3229  1.6186  1.8997      104557.7326
2023       89248.7467  0.1238  0.3653  1.2919  1.7291      105482.1619
2024      111293.1621  0.2344  0.3697  0.5519  1.7065      105211.0737
2025      118612.9221  0.1864  0.2988  0.6188  1.7201      103628.6884
2026       71737.2646  0.4488  0.3830  0.7960  1.0657       85828.2421
2027       80197.7313  0.5031  0.3595  1.4677  1.2418       85801.3138
2028       54767.2070  0.4947  0.4984  3.4141  0.9614       87833.5048
2029       64184.8725  0.4050  0.3730  2.1978  0.9708       85504.8868
2030       94895.4734  0.1926  0.3551  5.0005  1.3390       90589.8914
2031      137279.5873  0.1567  0.3171  1.2662  1.4460       87645.1091
2032      171907.2627  0.3259  0.4107  1.1003  1.4188       91921.2611
2033      204415.1166  0.2625  0.3568  0.2975  1.5136       91827.5493
2034      191067.3026  0.4697  0.4234  0.4604  1.3518       92931.2223
2035      155344.2779  0.4800  0.3524  0.6620  1.1774       95206.1379
2036       82993.9686  0.5031  0.3389  1.1046  0.7651       90851.1633
2037       72522.2814  0.6417  0.3616  1.7725  0.6788       88714.7686
2038       69096.4663  0.2798  0.3095  1.0493  0.7530       87230.8523
2039      132219.6493  0.1468  0.2381  1.8954  1.4018       92669.6807
2040      164698.3754  0.1459  0.2339  0.8915  1.6520       98346.1777
2041      188247.8972  0.1771  0.2977  3.0762  1.9440      104512.1341
2042      194683.7878  0.2553  0.3008  1.9181  1.5527      100886.1505
2043      216356.5343  0.2485  0.3885  3.3789  1.5441      105595.4441
2044      175144.7735  0.4096  0.4080  0.5277  1.2222       90608.7238
2045      129002.7892  0.5455  0.4682  0.6297  0.8029       83566.0992
