Year Ft Rg C
2019  3  1  3412.0681
2020  3  1  2087.2104
2021  3  1  3144.2789
2022  3  1  3245.8131
2023  3  1  5403.7306
2024  3  1 13255.0058
2025  3  1  9388.6317
2026  3  1 12111.7606
2027  3  1  7428.6094
2028  3  1  6560.3923
2029  3  1  5571.7848
2030  3  1  4546.7016
2031  3  1  7554.8201
2032  3  1 14042.0963
2033  3  1 13974.3533
2034  3  1 13920.4067
2035  3  1 12537.9108
2036  3  1  7706.9270
2037  3  1  8131.2360
2038  3  1  7834.3871
2039  3  1  7397.2737
2040  3  1  8698.2154
2041  3  1  8525.8577
2042  3  1  8417.3919
2043  3  1  6829.9660
2044  3  1 10105.3049
2045  3  1  9112.1350
