pseudo ref pts
2019       18838.0581  0.5145  0.4417  0.6459  0.7661       80552.3378
2020       27720.7546  0.1885  0.3946  0.8060  1.1635       82791.8569
2021       34023.2535  0.1729  0.3789  1.0902  1.1845       77445.2356
2022       59763.8848  0.1970  0.4800  1.1460  1.3897       92556.0502
2023       99616.4080  0.1211  0.3518  1.6702  1.8307       92383.0514
2024      104633.6826  0.2930  0.3384  0.6428  1.4595       94223.3288
2025      147188.0125  0.2189  0.3371  1.0278  1.7788      106098.3253
2026       85316.9320  0.4307  0.3615  0.5457  1.0477       93618.7872
2027       84887.9272  0.6232  0.4751  0.7771  1.0444       98066.0482
2028       56639.3609  0.3901  0.3131  1.0209  0.7884       90266.2028
2029       86110.5193  0.3016  0.3335  3.8991  1.3129      107928.8102
2030       91416.5120  0.2498  0.3715  3.3486  1.2391       96844.5942
2031       96215.9108  0.2299  0.4675  1.5402  1.1330       97839.5329
2032      120369.6024  0.2920  0.4436  0.2472  1.2893       97952.8355
2033      127832.7660  0.2403  0.3094  0.4389  1.2215       95935.3817
2034      160762.7078  0.1754  0.2435  0.7823  1.5416       97311.1175
2035       94040.3699  0.2198  0.1924  1.4580  0.9064       81335.8864
2036       79597.8938  0.1403  0.2039  0.9218  0.8151       79545.6404
2037       66105.2942  0.2131  0.2839  0.6668  0.7146       78451.8850
2038      100213.4520  0.1563  0.2601  0.9465  1.0697       85311.5227
2039      109520.6428  0.1371  0.2589  1.1558  1.1269       89853.2617
2040       99284.0771  0.2308  0.3189  0.8418  1.0586       90577.3101
2041       94829.5913  0.1916  0.2167  1.1208  0.9670       84319.8546
2042      103070.0273  0.1671  0.2910  0.9319  1.1386       95978.6384
2043       85198.7130  0.2479  0.3957  0.8562  0.9190       90244.9324
2044       95582.6952  0.3649  0.4349  0.8636  1.0716       95299.4871
2045       88733.9923  0.5577  0.6798  1.0811  1.0279      104593.8811
