Year Ft Rg C
2019  3  1  4132.1365
2020  3  1  1583.2308
2021  3  1  2194.6152
2022  3  1  2550.7983
2023  3  1  2714.7142
2024  3  1  3789.4043
2025  3  1  3233.5081
2026  3  1  4657.0088
2027  3  1  6327.8073
2028  3  1  7349.3985
2029  3  1  5657.4879
2030  3  1  2093.4789
2031  3  1  2644.5699
2032  3  1  2641.6692
2033  3  1  2754.7509
2034  3  1  3065.7258
2035  3  1  2521.5305
2036  3  1  1673.8289
2037  3  1  1364.3848
2038  3  1  1508.3399
2039  3  1  1776.2296
2040  3  1  1137.3457
2041  3  1  1201.7937
2042  3  1  1687.6688
2043  3  1  2857.8382
2044  3  1  3306.4862
2045  3  1  3234.3530
