pseudo ref pts
2019       21508.7744  0.5951  0.4710  0.9092  0.9181       29101.9775
2020       20399.9774  0.3734  0.4102  0.8901  0.8965       27193.6915
2021       31327.3675  0.2642  0.3661  1.4097  1.2883       29058.5679
2022       24640.2460  0.3591  0.3332  1.0106  1.0145       27913.1263
2023       25801.7357  0.3275  0.3661  1.0912  1.0719       29946.1436
2024       24567.0841  0.3389  0.4229  1.8550  1.0062       30586.5819
2025       49768.9824  0.2386  0.4321  3.4449  1.6715       34303.2932
2026       44266.1504  0.4572  0.4466  2.2094  1.1517       29907.6426
2027       53049.8450  0.3391  0.4110  0.3870  1.4471       32146.3535
2028       38704.1107  0.4698  0.4303  0.2394  1.0691       30903.4272
2029       24317.6580  0.7262  0.4499  0.3668  0.6905       29366.4300
2030       19543.3780  0.3529  0.3511  1.1226  0.6571       27664.3580
2031       25099.0037  0.2360  0.2687  1.5188  0.8197       27705.5251
2032       20385.6108  0.2478  0.3571  0.3724  0.6957       27422.6181
2033       24209.9749  0.2503  0.4126  0.4442  0.8420       30174.0220
2034       19485.3440  0.3857  0.4309  0.5332  0.7302       29587.9581
2035       17964.0840  0.4229  0.4979  0.8957  0.7260       30484.3081
2036       18675.6948  0.2303  0.3638  0.8712  0.8370       28356.5666
2037       19086.1257  0.2094  0.3595  0.6870  0.9469       29054.7609
2038       14294.3171  0.2569  0.4129  0.6887  0.7354       27698.1320
2039       13281.2354  0.3327  0.4279  0.6646  0.6879       25850.4204
2040       11099.6950  0.2745  0.3532  1.3532  0.5503       23254.5881
2041       14345.9143  0.2585  0.3522  1.5125  0.5975       23404.5809
2042       34763.3726  0.0979  0.2231  2.6065  1.1871       27026.2662
2043       42409.2501  0.1087  0.2626  0.6498  1.3091       27611.1698
2044       36556.5900  0.3617  0.4644  0.3002  0.9942       28195.2473
2045       42764.6532  0.2073  0.3048  1.4837  1.1237       31298.8594
