Year Ft Rg C
2019  3  1  3415.0314
2020  3  1  2810.5809
2021  3  1  3474.3722
2022  3  1  2779.8638
2023  3  1  2570.6383
2024  3  1  2301.9415
2025  3  1  2321.9800
2026  3  1  1110.4573
2027  3  1  1628.0938
2028  3  1  2799.5230
2029  3  1  3220.4807
2030  3  1  3941.5050
2031  3  1  2978.4344
2032  3  1  2449.0525
2033  3  1  2695.3001
2034  3  1  2617.2910
2035  3  1  2847.4731
2036  3  1  2229.9648
2037  3  1  1671.5114
2038  3  1   740.6223
2039  3  1  1075.0021
2040  3  1  1662.7237
2041  3  1  2768.1549
2042  3  1  3635.7763
2043  3  1  3567.3349
2044  3  1  2512.7343
2045  3  1  2632.6689
