pseudo ref pts
2019       35718.1349  0.2453  0.3710  1.3977  1.3464       36263.2737
2020       32137.0776  0.2559  0.3454  1.1813  1.2500       36341.7057
2021       37690.8878  0.2570  0.3803  1.3899  1.4808       35145.2093
2022       40225.5274  0.2897  0.3733  1.4566  1.4548       37227.4202
2023       39453.4844  0.2847  0.3283  1.1767  1.5287       34939.6350
2024       31154.8735  0.3395  0.3573  0.9300  1.3161       33273.3127
2025       29578.0995  0.3135  0.2898  1.5655  1.3308       33430.6183
2026       23239.7021  0.2260  0.2882  2.3556  0.9933       32683.0143
2027       40987.0468  0.1362  0.2690  2.8316  1.5255       36653.2506
2028       30609.4152  0.2896  0.3633  0.7239  1.0804       28928.2670
2029       19028.6907  0.5064  0.4429  0.1555  0.6081       25784.1587
2030       28585.6698  0.2441  0.3587  0.4195  0.8745       30811.9217
2031       27765.8329  0.3394  0.4481  0.8452  0.8076       29801.5601
2032       27468.9101  0.4070  0.5453  2.4041  0.8177       34971.8454
2033       32716.3034  0.3262  0.4312  1.0978  0.9980       33461.5583
2034       26750.2402  0.3899  0.4315  0.5943  0.9207       31612.3101
2035       25522.7952  0.3273  0.3331  0.3708  1.0084       31218.4963
2036       20173.1874  0.2668  0.3011  0.7787  0.8367       31562.1445
2037       17116.9829  0.3375  0.3083  0.8295  0.7559       27598.0280
2038       14245.1339  0.2126  0.3808  1.7847  0.7066       28325.3399
2039       26190.8969  0.1441  0.3717  2.7683  1.2457       34878.0570
2040       45232.5606  0.1473  0.2937  2.9095  1.7172       36023.1799
2041       42551.0243  0.2101  0.4343  1.2477  1.5250       34725.2675
2042       37176.6588  0.3771  0.3604  0.6073  1.2607       31946.0493
2043       19202.0540  0.6648  0.4079  0.6135  0.6913       28156.4622
2044       19254.8408  0.2639  0.3965  0.9223  0.6480       30049.7036
2045       17936.4792  0.2959  0.4037  0.5552  0.5248       26740.2596
