Year Ft Rg C
2019  3  1  3473.9756
2020  3  1  2889.7387
2021  3  1  2641.6174
2022  3  1  1794.9893
2023  3  1  2212.1380
2024  3  1  2143.0752
2025  3  1  2247.6361
2026  3  1  4024.9504
2027  3  1  4379.1189
2028  3  1  4124.2387
2029  3  1  3121.1216
2030  3  1  3675.7850
2031  3  1  3567.5239
2032  3  1  4048.5252
2033  3  1  5675.4141
2034  3  1 11845.2937
2035  3  1  9389.6789
2036  3  1  5167.2456
2037  3  1  3913.7977
2038  3  1  3802.4744
2039  3  1  3415.9496
2040  3  1  4714.7623
2041  3  1  3614.8182
2042  3  1  1586.0410
2043  3  1  1615.3583
2044  3  1  1415.2874
2045  3  1  1518.1144
