pseudo ref pts
2019       25686.2621  0.5402  0.5844  1.0423  1.0565       31033.6122
2020       18127.5936  0.5384  0.4293  0.7222  0.7471       27271.8445
2021       25782.3511  0.2857  0.2791  1.1657  1.0655       29240.6996
2022       37338.4628  0.1349  0.2860  1.7036  1.3825       33888.4715
2023       36829.1966  0.1495  0.3210  1.5636  1.3125       33051.3655
2024       26265.1622  0.3491  0.4342  0.6852  0.8393       29785.1749
2025       24418.3309  0.3170  0.3473  0.4079  0.8112       26444.3087
2026       23264.8515  0.2975  0.3635  0.5012  0.8120       28420.5285
2027       18327.6059  0.4553  0.4858  0.7324  0.6125       28217.3136
2028       21254.7763  0.4563  0.6533  1.0611  0.7111       29992.7749
2029       14602.6534  0.6647  0.7711  0.6633  0.4967       27288.0458
2030       14889.1402  0.5361  0.5636  0.4749  0.4881       25351.5320
2031       20071.0278  0.4317  0.5246  1.5793  0.6369       27342.0472
2032       27899.9748  0.3343  0.5015  1.6790  0.7266       30377.1256
2033       44468.5139  0.2759  0.5241  1.5354  0.9071       30458.4031
2034       67955.8590  0.4165  0.5352  0.1267  1.2796       33820.8914
2035       65611.6392  0.3885  0.3601  0.4428  1.2004       30048.9615
2036       92746.3819  0.3676  0.3133  1.2978  1.6659       30999.0584
2037       76879.1355  0.4059  0.2965  7.6073  1.4745       28327.1619
2038       64690.6152  0.2767  0.2674  1.6426  1.4144       30684.8960
2039       58999.3057  0.3478  0.3979  0.6114  1.5271       34427.3174
2040       51854.0303  0.5282  0.4517  0.5480  1.6217       36365.2348
2041       24971.6098  0.8094  0.3504  0.5164  0.9390       32155.3887
2042       12129.8693  0.4337  0.3559  1.1576  0.6472       29824.2271
2043       18203.6662  0.4435  0.3886  2.2025  0.9154       32724.8899
2044       20293.0296  0.2063  0.3996  2.3257  1.0817       33715.2600
2045       37730.9613  0.1011  0.2999  1.0265  1.9751       36476.2060
