Year Ft Rg C
2019  3  1  2989.5836
2020  3  1  1905.3090
2021  3  1  2004.2225
2022  3  1  1815.7011
2023  3  1  2167.9430
2024  3  1  3814.8922
2025  3  1  3927.0673
2026  3  1  3519.0221
2027  3  1  4219.5048
2028  3  1  3964.9551
2029  3  1  2910.3650
2030  3  1  2840.2256
2031  3  1  2198.7462
2032  3  1  1633.2876
2033  3  1  2101.9234
2034  3  1  1951.3451
2035  3  1  2071.0439
2036  3  1  3567.6463
2037  3  1  2042.3523
2038  3  1  1944.1998
2039  3  1  1755.6449
2040  3  1  1509.4671
2041  3  1  2045.4073
2042  3  1  2174.2412
2043  3  1  3514.0585
2044  3  1  3972.3169
2045  3  1  5202.5620
