pseudo ref pts
2019       22403.7218  0.4108  0.3155  0.7331  0.7966       26428.9468
2020       19024.5952  0.2571  0.3266  0.6342  0.7194       26840.3861
2021       19110.1054  0.2743  0.3933  1.2254  0.7168       25931.7578
2022       20577.8475  0.2298  0.4032  0.9355  0.6885       28784.6092
2023       43662.9343  0.0871  0.2559  1.5566  1.3041       33477.8598
2024       55693.7091  0.1397  0.2975  0.5758  1.5827       35951.3936
2025       50377.6285  0.1846  0.3230  1.1876  1.3726       32341.1334
2026       32435.4885  0.3468  0.3322  1.0032  0.8482       28863.4374
2027       38895.1565  0.3317  0.3833  1.4510  1.0147       32289.3591
2028       46181.7380  0.2529  0.3962  0.6593  1.2325       35555.7932
2029       49236.1294  0.2032  0.3229  0.6326  1.4064       35407.0377
2030       51047.2808  0.2858  0.3955  1.1851  1.6141       37806.4123
2031       23985.8468  0.4662  0.3695  1.4256  0.8298       33932.1947
2032       15914.0489  0.3580  0.4903  1.4790  0.6706       32042.7930
2033       31586.3259  0.1684  0.3357  1.8427  1.2413       35838.7854
2034       42704.5039  0.1547  0.2683  1.4093  1.6064       35499.8326
2035       57658.4472  0.1368  0.2956  1.5442  2.1270       37574.1732
2036       50155.5237  0.3500  0.4065  1.6399  1.7975       41121.2700
2037       35144.3038  0.5386  0.4810  1.4319  1.3419       37883.3095
2038       36930.1890  0.4224  0.4580  1.8133  1.5344       36830.3719
2039       20630.8293  0.5756  0.3802  1.3359  0.9237       31443.8174
2040       16465.0762  0.2515  0.2743  1.6200  0.7855       27866.3958
2041       41739.7413  0.1390  0.2662  2.9272  1.6343       33350.5328
2042       47369.9722  0.1512  0.2536  2.7439  1.6499       33265.6938
2043       57933.5224  0.1609  0.2457  1.8593  1.7463       30717.0181
2044       70412.5065  0.2221  0.3502  1.5320  1.4939       32590.6707
2045       51748.1092  0.2754  0.3717  0.4789  0.9597       29759.1933
