Year Ft Rg C
2019  3  1  4132.1365
2020  3  1  1187.5264
2021  3  1  2121.2255
2022  3  1  3477.5820
2023  3  1  5041.0219
2024  3  1  7946.6904
2025  3  1  8066.1826
2026  3  1 13108.7716
2027  3  1 14986.8455
2028  3  1 27346.2349
2029  3  1 20819.7287
2030  3  1  7096.8209
2031  3  1 11497.6707
2032  3  1  5509.0045
2033  3  1  5013.9840
2034  3  1  6222.6278
2035  3  1  5394.8170
2036  3  1  5707.1579
2037  3  1  4005.3366
2038  3  1  5165.5060
2039  3  1  5668.1904
2040  3  1  5867.2624
2041  3  1  5472.0258
2042  3  1  8224.9814
2043  3  1 10985.7723
2044  3  1  9030.5768
2045  3  1 10979.9640
