pseudo ref pts
2019       21508.7744  0.5911  0.4710  0.9092  0.9181       87305.9325
2020       23803.3429  0.2266  0.4007  0.8901  1.0461       81967.4954
2021       49680.6482  0.1423  0.3605  1.4102  1.6330       86998.1282
2022       51119.5767  0.2239  0.3281  1.0110  1.3003       83838.2597
2023       65495.3622  0.1871  0.3633  1.0919  1.3918       89728.2287
2024       72549.7807  0.2766  0.4164  1.8562  1.2418       91839.8357
2025      154252.7705  0.1914  0.4288  3.4469  1.9008      103006.9945
2026      139289.4861  0.4491  0.4431  2.2099  1.2295       90023.2145
2027      165112.4994  0.3143  0.4078  0.3868  1.4760       96386.8269
2028      121484.8637  0.5079  0.4303  0.2393  1.0747       93004.1074
2029       73691.4750  0.8074  0.4499  0.3667  0.6826       88319.7669
2030       56821.9824  0.3868  0.3511  1.1227  0.6433       83179.7161
2031       72430.8713  0.2872  0.2707  1.5193  0.7987       83250.1833
2032       57323.4854  0.2296  0.3516  0.3725  0.6796       82405.6567
2033       69834.1448  0.2127  0.4064  0.4443  0.8399       90598.3182
2034       58159.7541  0.3250  0.4277  0.5333  0.7389       88498.1750
2035       55643.1928  0.3567  0.4903  0.8958  0.7498       91767.2310
2036       59460.8564  0.2343  0.3638  0.8714  0.8651       85132.0035
2037       59821.7865  0.2073  0.3568  0.6872  0.9622       87460.8734
2038       44351.0338  0.2741  0.4129  0.6889  0.7356       83153.7859
2039       40450.3077  0.3457  0.4279  0.6648  0.6778       77628.2159
2040       33406.1949  0.3504  0.3560  1.3533  0.5429       69903.4306
2041       42068.0987  0.3305  0.3522  1.5124  0.5861       70452.5023
2042      100664.0134  0.1254  0.2249  2.6060  1.1670       81232.2299
2043      121379.4851  0.1299  0.2626  0.6494  1.2873       83234.3751
2044      103707.4040  0.3616  0.4609  0.3000  0.9832       84868.5560
2045      122559.2074  0.2262  0.3048  1.4826  1.1189       93939.6600
