Year Ft Rg C
2019  3  1  3402.3676
2020  3  1  3344.9159
2021  3  1  2682.0534
2022  3  1  3462.2188
2023  3  1  3164.5201
2024  3  1  4419.7298
2025  3  1  3732.1454
2026  3  1  3818.9019
2027  3  1  3578.1794
2028  3  1  2444.2123
2029  3  1  5971.1454
2030  3  1  5129.4468
2031  3  1  4196.4726
2032  3  1  5135.5494
2033  3  1  4122.0000
2034  3  1  5445.0452
2035  3  1  4618.1441
2036  3  1  5034.6282
2037  3  1  3938.1774
2038  3  1  2978.1663
2039  3  1  2259.2811
2040  3  1  2449.3549
2041  3  1  2241.3787
2042  3  1  2570.2770
2043  3  1  2050.8755
2044  3  1  2204.3859
2045  3  1  1800.8831
