pseudo ref pts
2019       25586.5993  0.4024  0.4923  0.8362  0.8372       32756.2016
2020       16563.4248  0.5242  0.5148  0.5688  0.5368       29472.1039
2021       17537.2835  0.3917  0.4084  0.6684  0.5746       28286.4269
2022       16650.6070  0.3270  0.4375  0.6128  0.5522       27940.3034
2023       24127.5305  0.2457  0.4149  0.7505  0.7752       30390.7608
2024       24060.2146  0.3174  0.3673  0.7386  0.7514       29338.7410
2025       29506.8140  0.2788  0.3209  0.6189  0.8430       29535.5040
2026       27934.7135  0.2839  0.2984  1.7858  0.8287       29490.5074
2027       24498.7487  0.2844  0.2464  1.5419  0.6896       28725.5679
2028       30073.4796  0.1289  0.2078  2.2453  0.8128       27957.1469
2029       41588.5407  0.1219  0.2125  0.8087  1.0524       29032.4922
2030       29752.2665  0.1858  0.2535  0.5123  0.7330       28913.4403
2031       36920.7009  0.1593  0.2860  0.6842  0.8176       31467.3025
2032       30323.2138  0.3298  0.5550  0.4264  0.6261       32426.5159
2033       30602.6918  0.3522  0.5296  0.6871  0.6121       30542.5190
2034       35432.3332  0.3007  0.3352  0.6512  0.6914       30348.3609
2035       25801.4139  0.3983  0.4074  0.4490  0.5356       28948.2537
2036       27778.4224  0.3291  0.4206  0.2041  0.6569       27047.7036
2037       23062.0431  0.3315  0.3651  0.2413  0.5879       26605.1292
2038       17168.7408  0.3018  0.3181  0.2946  0.5033       24723.3012
2039       14806.4025  0.2724  0.3023  1.0012  0.5256       24969.4513
2040       17844.5227  0.1877  0.3324  0.9250  0.6585       27651.7037
2041       27561.5777  0.1278  0.3276  1.8505  0.9847       32923.9666
2042       22170.2027  0.2214  0.3367  0.3460  0.8253       31022.2270
2043       28038.2371  0.1808  0.2861  1.5416  1.1136       31543.0056
2044       36976.0069  0.2072  0.3585  1.4792  1.3483       32879.3898
2045       39881.4987  0.2229  0.4108  3.4839  1.2980       32630.7258
