Year Ft Rg C
2019  3  1  3138.2815
2020  3  1  2273.9929
2021  3  1  2865.0165
2022  3  1  3023.8072
2023  3  1  2571.2822
2024  3  1  1305.8168
2025  3  1  1595.2131
2026  3  1   689.1005
2027  3  1   936.5915
2028  3  1   971.1180
2029  3  1  1574.3450
2030  3  1  2332.8955
2031  3  1  2667.2512
2032  3  1  3483.5878
2033  3  1  2881.2250
2034  3  1  3225.6006
2035  3  1  1806.6543
2036  3  1  1845.0815
2037  3  1  1426.6089
2038  3  1  1764.6492
2039  3  1  1883.2538
2040  3  1  2164.1879
2041  3  1  2423.0772
2042  3  1  2522.8755
2043  3  1  2543.1957
2044  3  1  2179.2790
2045  3  1  2303.5460
