pseudo ref pts
2019       13605.0423  0.5141  0.4100  0.5098  0.5185       13754.3203
2020       24211.4575  0.2227  0.4373  0.8882  0.8920       16973.8696
2021       36434.2922  0.1162  0.2930  1.2289  1.3661       17308.4705
2022       34199.4922  0.2307  0.3369  1.2089  1.3123       17978.5873
2023       23296.2631  0.2715  0.3025  0.8634  1.0748       16387.7199
2024       14825.5946  0.2426  0.2602  0.8043  0.7004       15567.7429
2025       13176.3545  0.2794  0.2657  0.7290  0.7020       15240.8292
2026       12025.4402  0.1135  0.1946  1.9790  0.7289       14722.8141
2027       12140.5377  0.1379  0.2572  1.4831  0.6965       15581.2535
2028       14376.2892  0.1491  0.4161  1.3870  0.7177       16000.5136
2029       14323.3816  0.1446  0.3036  0.5443  0.6523       14070.6761
2030       15196.4850  0.2638  0.3826  0.3707  0.5947       13929.5002
2031       15685.4046  0.2409  0.3534  0.4715  0.5429       13075.4242
2032       27735.2055  0.1622  0.2757  0.4039  0.8903       14827.7101
2033       24442.0836  0.1791  0.2709  0.5984  0.7563       14489.5678
2034       25813.9211  0.2063  0.2859  0.8369  0.8232       15533.7239
2035       31424.1600  0.1986  0.3404  1.4797  1.0564       16610.0660
2036       31151.3183  0.2153  0.2990  1.9540  1.1276       17549.7012
2037       22383.7744  0.2943  0.3340  0.7936  0.8908       17161.1155
2038       19886.3302  0.3070  0.3288  1.9756  0.8324       15577.7021
2039       30788.4966  0.2078  0.3425  1.6543  1.2667       18966.6637
2040       28772.5659  0.2648  0.2894  1.7849  1.1991       15849.3083
2041       28044.6229  0.2786  0.3250  0.2710  1.2626       15944.9722
2042       26010.1084  0.4055  0.4330  0.4510  1.2748       16427.5927
2043       13439.3337  0.7501  0.4736  0.3250  0.7796       14532.4083
2044       11919.8499  0.7408  0.4891  1.1268  0.7824       14626.1655
2045        5972.4006  1.2563  0.5437  0.9138  0.5067       13346.7287
