Year Ft Rg C
2019  3  1  3121.2796
2020  3  1  1944.4567
2021  3  1  2954.2325
2022  3  1  4716.2623
2023  3  1  6483.6499
2024  3  1  7338.8645
2025  3  1  8859.9220
2026  3  1 11896.4040
2027  3  1 13125.4293
2028  3  1  8946.3782
2029  3  1 14158.0793
2030  3  1  8886.6096
2031  3  1 11136.7414
2032  3  1 11630.5088
2033  3  1  9954.3861
2034  3  1 11820.7327
2035  3  1 13392.5467
2036  3  1 12057.6397
2037  3  1 15624.3882
2038  3  1 38087.2404
2039  3  1 23880.4471
2040  3  1 14580.9455
2041  3  1 10826.2686
2042  3  1  3244.4852
2043  3  1  3397.7975
2044  3  1  2439.2236
2045  3  1  3479.0652
