pseudo ref pts
2019       22563.7268  0.3836  0.4118  0.9773  0.9462       89336.2884
2020       28126.2505  0.2186  0.4915  1.0561  1.1685       95538.8243
2021       40079.9595  0.1722  0.4929  0.9535  1.3144       99622.5118
2022       76630.1074  0.1845  0.4233  1.1963  1.8680      106010.4111
2023       59440.4963  0.2369  0.4144  1.3050  1.2470       90759.8785
2024       67639.0110  0.3456  0.4429  1.4883  1.0839       93807.7213
2025       93561.3494  0.2286  0.3479  1.8568  1.2704       94220.1145
2026       98486.2381  0.2715  0.3320  1.0082  1.1429       96235.1065
2027       87247.1637  0.4089  0.4261  0.9233  0.9542       91168.8197
2028       78755.0858  0.6008  0.6548  0.8268  0.7986       90814.6651
2029       46676.2477  0.6333  0.5803  0.4770  0.4851       85296.2490
2030       54622.9198  0.4079  0.5501  0.4448  0.5363       88670.0233
2031       56994.8202  0.3174  0.4487  0.6251  0.5557       86176.2481
2032       43665.8291  0.4583  0.5498  0.4770  0.4559       85659.4199
2033       50936.7072  0.4000  0.5049  0.6701  0.5288       87289.5329
2034       65676.8012  0.3212  0.4745  1.4074  0.6581       93880.0359
2035       72415.9862  0.3547  0.4593  1.7242  0.6124       93331.2367
2036       96171.0256  0.3275  0.5603  1.9557  0.7300       95538.7879
2037      210010.8700  0.2197  0.6080  0.5704  1.4765      114519.6111
2038      311194.0501  0.5023  0.4422  0.8172  2.0372      115091.6513
2039      145194.7708  0.9233  0.4349  0.6412  1.2142      105155.2191
2040       61564.6969  1.2127  0.5148  0.7979  0.7524       92073.5544
2041       58875.3066  1.1737  0.4180  0.8470  0.8552       95057.7894
2042       27413.3706  0.4704  0.4139  0.3484  0.6229       87232.5048
2043       32540.8151  0.4522  0.3878  0.8844  0.8205       91362.4057
2044       39078.7588  0.1522  0.3072  1.2358  1.0109       92680.1978
2045       42157.0796  0.1697  0.3413  1.5197  1.0159       91999.3651
