Year Ft Rg C
2019  3  1  3117.7027
2020  3  1  2062.7129
2021  3  1  2975.1955
2022  3  1  4139.2797
2023  3  1  6420.8127
2024  3  1  6273.8532
2025  3  1  5610.3308
2026  3  1  8159.4871
2027  3  1  7660.2634
2028  3  1  4643.9982
2029  3  1  5050.6243
2030  3  1  4311.1667
2031  3  1  5881.6300
2032  3  1  4463.1139
2033  3  1  4722.2031
2034  3  1  9465.3971
2035  3  1  7488.3805
2036  3  1  7219.9275
2037  3  1  5878.1540
2038  3  1  4786.8314
2039  3  1 10204.9177
2040  3  1 21483.7108
2041  3  1 25534.4367
2042  3  1 27324.1720
2043  3  1 19714.5966
2044  3  1 22160.4387
2045  3  1 13786.4141
