pseudo ref pts
2019       27887.0856  0.4232  0.5461  1.0540  1.0529      107200.6479
2020       29551.8888  0.1798  0.3169  0.8572  1.0960       96180.7365
2021       30055.5905  0.2072  0.3796  0.9459  0.9725       85742.7829
2022       49988.5914  0.1446  0.3183  0.9036  1.1150       95612.1419
2023       52022.5393  0.2080  0.4034  0.6817  0.9525       90318.5762
2024       37862.4506  0.3435  0.4602  0.1687  0.5817       79768.3001
2025       62070.3993  0.2263  0.3585  0.3658  0.8387       81894.4612
2026       67527.1263  0.2917  0.4293  0.6050  0.8895       92411.9616
2027       70047.6766  0.2181  0.3439  1.0224  0.9314       92725.8734
2028       58881.1669  0.2618  0.3555  0.8134  0.8388       88232.2414
2029       62683.8408  0.2631  0.3111  2.0447  0.9533       88928.2285
2030       66209.5213  0.1776  0.2260  3.7781  1.0430       86919.5605
2031       69142.5010  0.1534  0.2172  3.0125  1.0155       82454.1056
2032       93253.0469  0.1378  0.3411  0.8610  1.2478       89641.6073
2033      158223.3742  0.0767  0.3150  0.8779  2.0217      110460.6062
2034      144868.1481  0.2195  0.3002  0.5576  1.7248      103586.2390
2035       90366.4594  0.3791  0.3383  0.7015  1.1532       91407.2179
2036       54482.1717  0.3697  0.3041  2.2428  0.8108       84358.0580
2037       54041.9921  0.5894  0.4814  3.2055  0.6922       87411.9972
2038       62948.7426  0.2562  0.4150  2.8271  0.6645       78310.9524
2039       72869.3097  0.2564  0.4496  0.5786  0.7282       80454.8619
2040      117414.2191  0.3346  0.3525  0.6427  0.8939       81060.6473
2041      149088.3989  0.3030  0.4600  0.4475  0.9415       90721.4139
2042      132011.9105  0.3697  0.3622  0.3673  0.7401       85583.0687
2043       99355.6845  0.4637  0.4591  0.1662  0.6123       88929.7886
2044      104657.0245  0.3972  0.4120  0.3104  0.6737       88210.7657
2045       88997.3752  0.3708  0.3908  0.2904  0.7261       85571.9269
