Year Ft Rg C
2019  3  1  3727.8196
2020  3  1  2334.9751
2021  3  1  2652.9675
2022  3  1  4455.1933
2023  3  1  5555.7178
2024  3  1 14236.6594
2025  3  1 11523.0612
2026  3  1 12100.6493
2027  3  1 14131.8779
2028  3  1  9253.1191
2029  3  1  9333.3104
2030  3  1 10647.8713
2031  3  1  8577.1453
2032  3  1  7471.7094
2033  3  1  8622.2634
2034  3  1  6337.9028
2035  3  1  6637.4950
2036  3  1  8414.0769
2037  3  1  5447.0168
2038  3  1  5973.8138
2039  3  1  5146.7053
2040  3  1  4926.4016
2041  3  1  6879.3627
2042  3  1  7483.7698
2043  3  1  7759.4685
2044  3  1  6530.6382
2045  3  1 10292.8973
