pseudo ref pts
2019       48332.1086  0.2010  0.3603  1.5481  1.5357      113767.6508
2020       46190.7781  0.1787  0.3445  1.3462  1.5559      111333.4170
2021       59128.9553  0.1607  0.3789  1.8775  1.7668      106102.5596
2022       63874.6019  0.2955  0.6289  1.6859  1.4203      115849.3598
2023       87732.2106  0.2451  0.6068  2.4762  1.5231      115402.7411
2024      129885.1757  0.3900  0.5958  1.6716  1.6589      118528.1690
2025       93165.8737  0.3028  0.3712  0.7568  1.0103       98925.1742
2026      116667.1342  0.2449  0.3871  0.2269  1.1567      100112.0642
2027       65436.7128  0.2991  0.2915  0.2761  0.6075       85660.7744
2028       54515.5055  0.2746  0.3844  0.3958  0.5397       90225.6650
2029       89824.3352  0.1736  0.3163  1.7593  0.8880       94665.9261
2030       52702.5750  0.2980  0.3083  0.6195  0.5507       83417.9346
2031       41744.2617  0.3177  0.2743  0.3725  0.4794       82080.5422
2032       62487.5443  0.1830  0.3237  0.7866  0.7357       89618.0428
2033       81600.5236  0.1927  0.4153  0.7969  0.9254       97992.7554
2034      138313.7993  0.2310  0.4471  1.9747  1.6049      108415.0425
2035       78163.5238  0.3715  0.5546  0.4159  0.9685      100784.6231
2036       99067.4075  0.3487  0.4868  1.2204  1.3356      106605.6018
2037       89468.7846  0.3560  0.3570  1.0803  1.1709      103862.1278
2038       45682.8797  0.5844  0.4325  1.7004  0.6285       94706.9570
2039       91086.0334  0.2830  0.3238  1.8081  1.2795      113542.4715
2040       73150.5784  0.3135  0.4173  1.4309  1.1337      111393.3018
2041       46994.6931  0.5824  0.6207  0.6295  0.7594      105386.3037
2042       53095.7375  0.3840  0.4413  1.3936  0.8518       98794.3011
2043       30216.9178  0.6542  0.5724  0.8845  0.4710       86412.0595
2044       69413.1610  0.1987  0.3889  1.8412  0.9198       92820.8338
2045       93944.0560  0.1747  0.4674  1.0153  1.1632      104846.9279
